     Program PWSCF v.6.1 (svn rev. 13369) starts on  6Apr2022 at 18:43:23

     Current dimensions of program PWSCF are:
     Max number of different atomic species (ntypx) = 10
     Max number of k-points (npk) =  40000
     Max angular momentum in pseudopotentials (lmaxx) =  3

     IMPORTANT: XC functional enforced from input :
     Exchange-correlation      = SLA+PW+PSX+PSC ( 1  4 10  8 0 0)
     Any further DFT definition will be discarded
     Please, verify this is what you really want

     bravais-lattice index     =            0
     lattice parameter (alat)  =       7.1089  a.u.
     unit-cell volume          =    1954.1947 (a.u.)^3
     number of atoms/cell      =           12
     number of atomic types    =            2
     number of electrons       =       114.00
     number of Kohn-Sham states=          114
     kinetic-energy cutoff     =     150.0000  Ry
     charge density cutoff     =     600.0000  Ry
     convergence threshold     =      7.0E-10
     mixing beta               =       0.7000
     number of iterations used =            8  plain     mixing
     Exchange-correlation      = SLA+PW+PSX+PSC ( 1  4 10  8 0 0)
     Non magnetic calculation with spin-orbit

     celldm(1)=   7.108941  celldm(2)=   0.000000  celldm(3)=   0.000000
     celldm(4)=   0.000000  celldm(5)=   0.000000  celldm(6)=   0.000000

     crystal axes: (cart. coord. in units of alat)
               a(1) = (   1.000000   0.000000   0.000000 )
               a(2) = (  -0.500000   0.866025   0.000000 )
               a(3) = (   0.000000   0.000000   6.280909 )

     reciprocal axes: (cart. coord. in units 2 pi/alat)
               b(1) = (  1.000000  0.577350 -0.000000 )
               b(2) = (  0.000000  1.154701 -0.000000 )
               b(3) = (  0.000000  0.000000  0.159213 )

     PseudoPot. # 1 for Ga read from file:
     /home/mclaro/pseudo/ONCVPSP/sg15/Ga_ONCV_PBE_fr.upf
     MD5 check sum: 291fdaf421ec3a7833e0cf5917f67014
     Pseudo is Norm-conserving, Zval = 13.0
     Generated using ONCVPSP code by D. R. Hamann
     Using radial grid of 1926 points, 10 beta functions with:
                l(1) =   0
                l(2) =   0
                l(3) =   1
                l(4) =   1
                l(5) =   1
                l(6) =   1
                l(7) =   2
                l(8) =   2
                l(9) =   2
               l(10) =   2

     PseudoPot. # 2 for Se read from file:
     /home/mclaro/pseudo/ONCVPSP/sg15/Se_ONCV_PBE_fr.upf
     MD5 check sum: cfe1483cd39788255e734f67871220b5
     Pseudo is Norm-conserving, Zval =  6.0
     Generated using ONCVPSP code by D. R. Hamann
     Using radial grid of 1214 points, 10 beta functions with:
                l(1) =   0
                l(2) =   0
                l(3) =   1
                l(4) =   1
                l(5) =   1
                l(6) =   1
                l(7) =   2
                l(8) =   2
                l(9) =   2
               l(10) =   2

     atomic species   valence    mass     pseudopotential
        Ga            13.00    69.72300     Ga( 1.00)
        Se             6.00    78.96000     Se( 1.00)

      6 Sym. Ops. (no inversion) found

                                    s                        frac. trans.

      isym =  1     identity

 cryst.   s( 1) = (     1          0          0      )
                  (     0          1          0      )
                  (     0          0          1      )

 cart.    s( 1) = (  1.0000000  0.0000000  0.0000000 )
                  (  0.0000000  1.0000000  0.0000000 )
                  (  0.0000000  0.0000000  1.0000000 )

      isym =  2     120 deg rotation - cryst. axis [0,0,1]

[...]

      isym =  3     120 deg rotation - cryst. axis [0,0,-1]

[...]

      isym =  4     inv. 180 deg rotation - cart. axis [1,0,0]

[...]

      isym =  5     inv. 180 deg rotation - cryst. axis [0,1,0]

[...]

      isym =  6     inv. 180 deg rotation - cryst. axis [1,1,0]

 cryst.   s( 6) = (     0         -1          0      )
                  (    -1          0          0      )
                  (     0          0          1      )

 cart.    s( 6) = (  0.5000000 -0.8660254  0.0000000 )
                  ( -0.8660254 -0.5000000  0.0000000 )
                  (  0.0000000  0.0000000  1.0000000 )

   Cartesian axes

     site n.     atom                  positions (alat units)
         1           Se  tau(   1) = (   0.0000000   0.0000000   1.4775656  )
         2           Se  tau(   2) = (  -0.0000000   0.5773503   0.6141142  )
         3           Se  tau(   3) = (   0.5000000   0.2886751   3.5710424  )
         4           Se  tau(   4) = (   0.0000000   0.0000000   2.7079017  )
         5           Se  tau(   5) = (  -0.0000000   0.5773503   5.6647571  )
         6           Se  tau(   6) = (   0.5000000   0.2886751   4.8014162  )
         7           Ga  tau(   7) = (   0.5000000   0.2886751   1.7799971  )
         8           Ga  tau(   8) = (   0.0000000   0.0000000   0.3114708  )
         9           Ga  tau(   9) = (  -0.0000000   0.5773503   3.8734441  )
        10           Ga  tau(  10) = (   0.5000000   0.2886751   2.4052795  )
        11           Ga  tau(  11) = (   0.0000000   0.0000000   5.9671470  )
        12           Ga  tau(  12) = (  -0.0000000   0.5773503   4.4987545  )

   Crystallographic axes

     site n.     atom                  positions (cryst. coord.)
         1           Se  tau(   1) = ( -0.0000000  0.0000000  0.2352471  )
         2           Se  tau(   2) = (  0.3333333  0.6666667  0.0977747  )
         3           Se  tau(   3) = (  0.6666667  0.3333333  0.5685551  )
         4           Se  tau(   4) = ( -0.0000000  0.0000000  0.4311322  )
         5           Se  tau(   5) = (  0.3333333  0.6666667  0.9019009  )
         6           Se  tau(   6) = (  0.6666667  0.3333333  0.7644461  )
         7           Ga  tau(   7) = (  0.6666667  0.3333333  0.2833980  )
         8           Ga  tau(   8) = (  0.0000000  0.0000000  0.0495901  )
         9           Ga  tau(   9) = (  0.3333333  0.6666667  0.6167012  )
        10           Ga  tau(  10) = (  0.6666667  0.3333333  0.3829509  )
        11           Ga  tau(  11) = ( -0.0000000  0.0000000  0.9500452  )
        12           Ga  tau(  12) = (  0.3333333  0.6666667  0.7162585  )

     number of k points=   119
                       cart. coord. in units 2pi/alat
        k(    1) = (   0.0000000   0.0000000   0.0000000), wk =   0.0008889
        k(    2) = (   0.0000000   0.0000000   0.0318425), wk =   0.0017778
        k(    3) = (   0.0000000   0.0000000   0.0636851), wk =   0.0017778
        k(    4) = (   0.0000000   0.0769800  -0.0000000), wk =   0.0053333
        k(    5) = (   0.0000000   0.0769800   0.0318425), wk =   0.0053333
        k(    6) = (   0.0000000   0.0769800   0.0636851), wk =   0.0053333
        k(    7) = (   0.0000000   0.1539601  -0.0000000), wk =   0.0053333
        k(    8) = (   0.0000000   0.1539601   0.0318425), wk =   0.0053333
        k(    9) = (   0.0000000   0.1539601   0.0636851), wk =   0.0053333
        k(   10) = (   0.0000000   0.2309401  -0.0000000), wk =   0.0053333
        k(   11) = (   0.0000000   0.2309401   0.0318425), wk =   0.0053333
        k(   12) = (   0.0000000   0.2309401   0.0636851), wk =   0.0053333
        k(   13) = (   0.0000000   0.3079201  -0.0000000), wk =   0.0053333
        k(   14) = (   0.0000000   0.3079201   0.0318425), wk =   0.0053333
        k(   15) = (   0.0000000   0.3079201   0.0636851), wk =   0.0053333
        k(   16) = (   0.0000000   0.3849002  -0.0000000), wk =   0.0053333
        k(   17) = (   0.0000000   0.3849002   0.0318425), wk =   0.0053333
        k(   18) = (   0.0000000   0.3849002   0.0636851), wk =   0.0053333
        k(   19) = (   0.0000000   0.4618802  -0.0000000), wk =   0.0053333
        k(   20) = (   0.0000000   0.4618802   0.0318425), wk =   0.0053333
        k(   21) = (   0.0000000   0.4618802   0.0636851), wk =   0.0053333
        k(   22) = (   0.0000000   0.5388603  -0.0000000), wk =   0.0053333
        k(   23) = (   0.0000000   0.5388603   0.0318425), wk =   0.0053333
        k(   24) = (   0.0000000   0.5388603   0.0636851), wk =   0.0053333
        k(   25) = (   0.0666667   0.1154701  -0.0000000), wk =   0.0053333
        k(   26) = (   0.0666667   0.1154701   0.0318425), wk =   0.0106667
        k(   27) = (   0.0666667   0.1154701   0.0636851), wk =   0.0106667
        k(   28) = (   0.0666667   0.1924501  -0.0000000), wk =   0.0106667
        k(   29) = (   0.0666667   0.1924501   0.0318425), wk =   0.0106667
        k(   30) = (   0.0666667   0.1924501   0.0636851), wk =   0.0106667
        k(   31) = (   0.0666667   0.2694301  -0.0000000), wk =   0.0106667
        k(   32) = (   0.0666667   0.2694301   0.0318425), wk =   0.0106667
        k(   33) = (   0.0666667   0.2694301   0.0636851), wk =   0.0106667
        k(   34) = (   0.0666667   0.3464102  -0.0000000), wk =   0.0106667
        k(   35) = (   0.0666667   0.3464102   0.0318425), wk =   0.0106667
        k(   36) = (   0.0666667   0.3464102   0.0636851), wk =   0.0106667
        k(   37) = (   0.0666667   0.4233902  -0.0000000), wk =   0.0106667
        k(   38) = (   0.0666667   0.4233902   0.0318425), wk =   0.0106667
        k(   39) = (   0.0666667   0.4233902   0.0636851), wk =   0.0106667
        k(   40) = (   0.0666667   0.5003702  -0.0000000), wk =   0.0106667
        k(   41) = (   0.0666667   0.5003702   0.0318425), wk =   0.0106667
        k(   42) = (   0.0666667   0.5003702   0.0636851), wk =   0.0106667
        k(   43) = (   0.0666667   0.5773503  -0.0000000), wk =   0.0053333
        k(   44) = (   0.0666667   0.5773503   0.0318425), wk =   0.0106667
        k(   45) = (   0.0666667   0.5773503   0.0636851), wk =   0.0106667
        k(   46) = (   0.1333333   0.2309401  -0.0000000), wk =   0.0053333
        k(   47) = (   0.1333333   0.2309401   0.0318425), wk =   0.0106667
        k(   48) = (   0.1333333   0.2309401   0.0636851), wk =   0.0106667
        k(   49) = (   0.1333333   0.3079201  -0.0000000), wk =   0.0106667
        k(   50) = (   0.1333333   0.3079201   0.0318425), wk =   0.0106667
        k(   51) = (   0.1333333   0.3079201   0.0636851), wk =   0.0106667
        k(   52) = (   0.1333333   0.3849002  -0.0000000), wk =   0.0106667
        k(   53) = (   0.1333333   0.3849002   0.0318425), wk =   0.0106667
        k(   54) = (   0.1333333   0.3849002   0.0636851), wk =   0.0106667
        k(   55) = (   0.1333333   0.4618802  -0.0000000), wk =   0.0106667
        k(   56) = (   0.1333333   0.4618802   0.0318425), wk =   0.0106667
        k(   57) = (   0.1333333   0.4618802   0.0636851), wk =   0.0106667
        k(   58) = (   0.1333333   0.5388603  -0.0000000), wk =   0.0106667
        k(   59) = (   0.1333333   0.5388603   0.0318425), wk =   0.0106667
        k(   60) = (   0.1333333   0.5388603   0.0636851), wk =   0.0106667
[...]
        k(  105) = (  -0.0666667  -0.5003702   0.0636851), wk =   0.0106667
        k(  106) = (  -0.1333333  -0.3079201   0.0318425), wk =   0.0106667
        k(  107) = (  -0.1333333  -0.3079201   0.0636851), wk =   0.0106667
        k(  108) = (  -0.1333333  -0.3849002   0.0318425), wk =   0.0106667
        k(  109) = (  -0.1333333  -0.3849002   0.0636851), wk =   0.0106667
        k(  110) = (  -0.1333333  -0.4618802   0.0318425), wk =   0.0106667
        k(  111) = (  -0.1333333  -0.4618802   0.0636851), wk =   0.0106667
        k(  112) = (  -0.1333333  -0.5388603   0.0318425), wk =   0.0106667
        k(  113) = (  -0.1333333  -0.5388603   0.0636851), wk =   0.0106667
        k(  114) = (  -0.2000000  -0.4233902   0.0318425), wk =   0.0106667
        k(  115) = (  -0.2000000  -0.4233902   0.0636851), wk =   0.0106667
        k(  116) = (  -0.2000000  -0.5003702   0.0318425), wk =   0.0106667
        k(  117) = (  -0.2000000  -0.5003702   0.0636851), wk =   0.0106667
        k(  118) = (  -0.2666667  -0.5388603   0.0318425), wk =   0.0106667
        k(  119) = (  -0.2666667  -0.5388603   0.0636851), wk =   0.0106667

                       cryst. coord.
        k(    1) = (   0.0000000   0.0000000   0.0000000), wk =   0.0008889
        k(    2) = (   0.0000000   0.0000000   0.2000000), wk =   0.0017778
        k(    3) = (   0.0000000   0.0000000   0.4000000), wk =   0.0017778
        k(    4) = (   0.0000000   0.0666667   0.0000000), wk =   0.0053333
        k(    5) = (   0.0000000   0.0666667   0.2000000), wk =   0.0053333
        k(    6) = (   0.0000000   0.0666667   0.4000000), wk =   0.0053333
        k(    7) = (   0.0000000   0.1333333   0.0000000), wk =   0.0053333
        k(    8) = (   0.0000000   0.1333333   0.2000000), wk =   0.0053333
        k(    9) = (   0.0000000   0.1333333   0.4000000), wk =   0.0053333
        k(   10) = (   0.0000000   0.2000000   0.0000000), wk =   0.0053333
        k(   11) = (   0.0000000   0.2000000   0.2000000), wk =   0.0053333
        k(   12) = (   0.0000000   0.2000000   0.4000000), wk =   0.0053333
        k(   13) = (   0.0000000   0.2666667   0.0000000), wk =   0.0053333
        k(   14) = (   0.0000000   0.2666667   0.2000000), wk =   0.0053333
        k(   15) = (   0.0000000   0.2666667   0.4000000), wk =   0.0053333
        k(   16) = (   0.0000000   0.3333333   0.0000000), wk =   0.0053333
        k(   17) = (   0.0000000   0.3333333   0.2000000), wk =   0.0053333
        k(   18) = (   0.0000000   0.3333333   0.4000000), wk =   0.0053333
        k(   19) = (   0.0000000   0.4000000   0.0000000), wk =   0.0053333
        k(   20) = (   0.0000000   0.4000000   0.2000000), wk =   0.0053333
        k(   21) = (   0.0000000   0.4000000   0.4000000), wk =   0.0053333
        k(   22) = (   0.0000000   0.4666667  -0.0000000), wk =   0.0053333
        k(   23) = (   0.0000000   0.4666667   0.2000000), wk =   0.0053333
        k(   24) = (   0.0000000   0.4666667   0.4000000), wk =   0.0053333
        k(   25) = (   0.0666667   0.0666667   0.0000000), wk =   0.0053333
        k(   26) = (   0.0666667   0.0666667   0.2000000), wk =   0.0106667
        k(   27) = (   0.0666667   0.0666667   0.4000000), wk =   0.0106667
        k(   28) = (   0.0666667   0.1333333   0.0000000), wk =   0.0106667
        k(   29) = (   0.0666667   0.1333333   0.2000000), wk =   0.0106667
        k(   30) = (   0.0666667   0.1333333   0.4000000), wk =   0.0106667
        k(   31) = (   0.0666667   0.2000000  -0.0000000), wk =   0.0106667
        k(   32) = (   0.0666667   0.2000000   0.2000000), wk =   0.0106667
        k(   33) = (   0.0666667   0.2000000   0.4000000), wk =   0.0106667
        k(   34) = (   0.0666667   0.2666667   0.0000000), wk =   0.0106667
        k(   35) = (   0.0666667   0.2666667   0.2000000), wk =   0.0106667
        k(   36) = (   0.0666667   0.2666667   0.4000000), wk =   0.0106667
        k(   37) = (   0.0666667   0.3333333   0.0000000), wk =   0.0106667
        k(   38) = (   0.0666667   0.3333333   0.2000000), wk =   0.0106667
        k(   39) = (   0.0666667   0.3333333   0.4000000), wk =   0.0106667
        k(   40) = (   0.0666667   0.4000000   0.0000000), wk =   0.0106667
        k(   41) = (   0.0666667   0.4000000   0.2000000), wk =   0.0106667
        k(   42) = (   0.0666667   0.4000000   0.4000000), wk =   0.0106667
        k(   43) = (   0.0666667   0.4666667  -0.0000000), wk =   0.0053333
        k(   44) = (   0.0666667   0.4666667   0.2000000), wk =   0.0106667
        k(   45) = (   0.0666667   0.4666667   0.4000000), wk =   0.0106667
        k(   46) = (   0.1333333   0.1333333   0.0000000), wk =   0.0053333
        k(   47) = (   0.1333333   0.1333333   0.2000000), wk =   0.0106667
        k(   48) = (   0.1333333   0.1333333   0.4000000), wk =   0.0106667
        k(   49) = (   0.1333333   0.2000000   0.0000000), wk =   0.0106667
        k(   50) = (   0.1333333   0.2000000   0.2000000), wk =   0.0106667
        k(   51) = (   0.1333333   0.2000000   0.4000000), wk =   0.0106667
        k(   52) = (   0.1333333   0.2666667   0.0000000), wk =   0.0106667
        k(   53) = (   0.1333333   0.2666667   0.2000000), wk =   0.0106667
        k(   54) = (   0.1333333   0.2666667   0.4000000), wk =   0.0106667
        k(   55) = (   0.1333333   0.3333333   0.0000000), wk =   0.0106667
        k(   56) = (   0.1333333   0.3333333   0.2000000), wk =   0.0106667
        k(   57) = (   0.1333333   0.3333333   0.4000000), wk =   0.0106667
        k(   58) = (   0.1333333   0.4000000  -0.0000000), wk =   0.0106667
        k(   59) = (   0.1333333   0.4000000   0.2000000), wk =   0.0106667
        k(   60) = (   0.1333333   0.4000000   0.4000000), wk =   0.0106667
[...]
        k(  105) = (  -0.0666667  -0.4000000   0.4000000), wk =   0.0106667
        k(  106) = (  -0.1333333  -0.2000000   0.2000000), wk =   0.0106667
        k(  107) = (  -0.1333333  -0.2000000   0.4000000), wk =   0.0106667
        k(  108) = (  -0.1333333  -0.2666667   0.2000000), wk =   0.0106667
        k(  109) = (  -0.1333333  -0.2666667   0.4000000), wk =   0.0106667
        k(  110) = (  -0.1333333  -0.3333333   0.2000000), wk =   0.0106667
        k(  111) = (  -0.1333333  -0.3333333   0.4000000), wk =   0.0106667
        k(  112) = (  -0.1333333  -0.4000000   0.2000000), wk =   0.0106667
        k(  113) = (  -0.1333333  -0.4000000   0.4000000), wk =   0.0106667
        k(  114) = (  -0.2000000  -0.2666667   0.2000000), wk =   0.0106667
        k(  115) = (  -0.2000000  -0.2666667   0.4000000), wk =   0.0106667
        k(  116) = (  -0.2000000  -0.3333333   0.2000000), wk =   0.0106667
        k(  117) = (  -0.2000000  -0.3333333   0.4000000), wk =   0.0106667
        k(  118) = (  -0.2666667  -0.3333333   0.2000000), wk =   0.0106667
        k(  119) = (  -0.2666667  -0.3333333   0.4000000), wk =   0.0106667

     Initial potential from superposition of free atoms

     starting charge  113.98348, renormalised to  114.00000
     Starting wfc are  156 randomized atomic wfcs

     Self-consistent Calculation

     iteration #  1     ecut=   150.00 Ry     beta=0.70
     Davidson diagonalization with overlap
     ethr =  1.00E-02,  avg # of iterations =  2.0

     Threshold (ethr) on eigenvalues was too large:
     Diagonalizing with lowered threshold

     Davidson diagonalization with overlap
     ethr =  2.10E-04,  avg # of iterations =  2.5

     total energy              =    -899.41016506 Ry
     Harris-Foulkes estimate   =    -899.52940374 Ry
     estimated scf accuracy    <       0.23082210 Ry

[...]

     total energy              =    -899.46059358 Ry
     Harris-Foulkes estimate   =    -899.46059359 Ry
     estimated scf accuracy    <       0.00000001 Ry

     iteration # 13     ecut=   150.00 Ry     beta=0.70
     Davidson diagonalization with overlap
     ethr =  1.29E-11,  avg # of iterations =  3.7

     End of self-consistent calculation

          k = 0.0000 0.0000 0.0000 ( 60559 PWs)   bands (ev):

    -8.3852  -8.3852  -8.3848  -8.3848  -8.3847  -8.3847  -8.2797  -8.2797
    -8.2797  -8.2797  -8.2786  -8.2786  -8.2738  -8.2738  -8.2737  -8.2737
    -8.2737  -8.2737  -8.2561  -8.2561  -8.2561  -8.2561  -8.2561  -8.2561
    -7.8675  -7.8675  -7.8675  -7.8675  -7.8674  -7.8674  -7.8461  -7.8461
    -7.8448  -7.8448  -7.8448  -7.8448  -7.8351  -7.8351  -7.8351  -7.8351
    -7.8328  -7.8328  -7.7901  -7.7901  -7.7900  -7.7900  -7.7696  -7.7696
    -7.7680  -7.7680  -7.7672  -7.7672  -7.7672  -7.7672  -7.6738  -7.6738
    -7.6737  -7.6737  -7.6737  -7.6737  -7.5388  -7.5388  -7.4224  -7.4224
    -7.4221  -7.4221  -7.1368  -7.1368  -7.1368  -7.1368  -7.0211  -7.0211
    -0.4578  -0.4578  -0.1784  -0.1784  -0.1780  -0.1780   2.4109   2.4109
     2.4116   2.4116   3.3016   3.3016   5.1031   5.1031   5.1750   5.1750
     5.1752   5.1752   5.2583   5.2583   5.3708   5.3708   5.3709   5.3709
     5.4303   5.4303   5.4511   5.4511   5.4517   5.4517   5.5351   5.5351
     5.5999   5.5999   5.6909   5.6909   5.6916   5.6916   6.4242   6.4242
     6.4246   6.4246

     occupation numbers
     1.0000   1.0000   1.0000   1.0000   1.0000   1.0000   1.0000   1.0000
     1.0000   1.0000   1.0000   1.0000   1.0000   1.0000   1.0000   1.0000
     1.0000   1.0000   1.0000   1.0000   1.0000   1.0000   1.0000   1.0000
     1.0000   1.0000   1.0000   1.0000   1.0000   1.0000   1.0000   1.0000
     1.0000   1.0000   1.0000   1.0000   1.0000   1.0000   1.0000   1.0000
     1.0000   1.0000   1.0000   1.0000   1.0000   1.0000   1.0000   1.0000
     1.0000   1.0000   1.0000   1.0000   1.0000   1.0000   1.0000   1.0000
     1.0000   1.0000   1.0000   1.0000   1.0000   1.0000   1.0000   1.0000
     1.0000   1.0000   1.0000   1.0000   1.0000   1.0000   1.0000   1.0000
     1.0000   1.0000   1.0000   1.0000   1.0000   1.0000   1.0000   1.0000
     1.0000   1.0000   1.0000   1.0000   1.0000   1.0000   1.0000   1.0000
     1.0000   1.0000   1.0000   1.0000   1.0000   1.0000   1.0000   1.0000
     1.0000   1.0000   1.0000   1.0000   1.0000   1.0000   1.0000   1.0000
     1.0000   1.0000   1.0000   1.0000   1.0000   1.0000   1.0000   1.0000
     1.0000   1.0000

[...]

          k = 0.0000-0.5389 0.0637 ( 60654 PWs)   bands (ev):

[...]

          k =-0.0667-0.1925 0.0318 ( 60555 PWs)   bands (ev):

[...]

          k =-0.2667-0.5389 0.0637 ( 60628 PWs)   bands (ev):

    -8.4400  -8.4392  -8.4387  -8.4137  -8.4130  -8.4125  -8.4082  -8.4079
    -8.4077  -8.4025  -8.4021  -8.4014  -8.3570  -8.3569  -8.3567  -8.2827
    -8.2826  -8.2826  -8.2455  -8.2455  -8.2454  -8.2372  -8.2372  -8.2372
    -8.0666  -8.0659  -8.0649  -7.9460  -7.9458  -7.9454  -7.9264  -7.9260
    -7.9257  -7.9174  -7.9172  -7.9170  -7.8375  -7.8374  -7.8373  -7.7885
    -7.7885  -7.7885  -7.7558  -7.7557  -7.7557  -7.7552  -7.7551  -7.7550
    -7.7415  -7.7414  -7.7413  -7.7094  -7.7094  -7.7094  -7.6204  -7.6204
    -7.6203  -7.6148  -7.6147  -7.6147  -5.7782  -5.7640  -5.7618  -5.7479
    -5.7463  -5.7325  -5.6497  -5.6444  -5.6338  -5.6285  -5.6168  -5.6118
    -0.8543  -0.8456  -0.8419  -0.8037  -0.7955  -0.7912   0.2506   0.2637
     0.2670   0.3385   0.3519   0.3580   1.9951   1.9992   2.0375   2.0909
     2.0970   2.1375   2.4405   2.4988   2.5076   2.5702   2.6245   2.6330
     3.3984   3.4102   3.5316   3.5378   3.7303   3.7410   4.2819   4.3574
     4.4111   4.4148   4.4737   4.4847   4.5055   4.5630   4.6444   4.7065
     4.8140   4.8582

     occupation numbers
     1.0000   1.0000   1.0000   1.0000   1.0000   1.0000   1.0000   1.0000
     1.0000   1.0000   1.0000   1.0000   1.0000   1.0000   1.0000   1.0000
     1.0000   1.0000   1.0000   1.0000   1.0000   1.0000   1.0000   1.0000
     1.0000   1.0000   1.0000   1.0000   1.0000   1.0000   1.0000   1.0000
     1.0000   1.0000   1.0000   1.0000   1.0000   1.0000   1.0000   1.0000
     1.0000   1.0000   1.0000   1.0000   1.0000   1.0000   1.0000   1.0000
     1.0000   1.0000   1.0000   1.0000   1.0000   1.0000   1.0000   1.0000
     1.0000   1.0000   1.0000   1.0000   1.0000   1.0000   1.0000   1.0000
     1.0000   1.0000   1.0000   1.0000   1.0000   1.0000   1.0000   1.0000
     1.0000   1.0000   1.0000   1.0000   1.0000   1.0000   1.0000   1.0000
     1.0000   1.0000   1.0000   1.0000   1.0000   1.0000   1.0000   1.0000
     1.0000   1.0000   1.0000   1.0000   1.0000   1.0000   1.0000   1.0000
     1.0000   1.0000   1.0000   1.0000   1.0000   1.0000   1.0000   1.0000
     1.0000   1.0000   1.0000   1.0000   1.0000   1.0000   1.0000   1.0000
     1.0000   1.0000

     highest occupied level (ev):     6.9117

!    total energy              =    -899.46059359 Ry
     Harris-Foulkes estimate   =    -899.46059359 Ry
     estimated scf accuracy    <          3.6E-10 Ry

     The total energy is the sum of the following terms:

     one-electron contribution =    -635.02138133 Ry
     hartree contribution      =     387.14642574 Ry
     xc contribution           =    -130.92021051 Ry
     ewald contribution        =    -520.66542748 Ry

     convergence has been achieved in  13 iterations

     Writing output data file GaSegamma.save

     General routines

     Parallel routines

   This run was terminated on:  19:45:21   6Apr2022

   JOB DONE.