     Program PWSCF v.6.1 (svn rev. 13369) starts on  6Apr2022 at 23:14:26

     Current dimensions of program PWSCF are:
     Max number of different atomic species (ntypx) = 10
     Max number of k-points (npk) =  40000
     Max angular momentum in pseudopotentials (lmaxx) =  3

     IMPORTANT: XC functional enforced from input :
     Exchange-correlation      = SLA+PW+PSX+PSC ( 1  4 10  8 0 0)
     Any further DFT definition will be discarded
     Please, verify this is what you really want

     bravais-lattice index     =            0
     lattice parameter (alat)  =       6.7628  a.u.
     unit-cell volume          =    1652.4844 (a.u.)^3
     number of atoms/cell      =           12
     number of atomic types    =            2
     number of electrons       =       114.00
     number of Kohn-Sham states=          114
     kinetic-energy cutoff     =     150.0000  Ry
     charge density cutoff     =     600.0000  Ry
     convergence threshold     =      7.0E-10
     mixing beta               =       0.7000
     number of iterations used =            8  plain     mixing
     Exchange-correlation      = SLA+PW+PSX+PSC ( 1  4 10  8 0 0)
     Non magnetic calculation with spin-orbit

     celldm(1)=   6.762775  celldm(2)=   0.000000  celldm(3)=   0.000000
     celldm(4)=   0.000000  celldm(5)=   0.000000  celldm(6)=   0.000000

     crystal axes: (cart. coord. in units of alat)
               a(1) = (   1.000000   0.000000   0.000000 )
               a(2) = (  -0.500000   0.866025   0.000000 )
               a(3) = (   0.000000   0.000000   6.169244 )

     reciprocal axes: (cart. coord. in units 2 pi/alat)
               b(1) = (  1.000000  0.577350 -0.000000 )
               b(2) = (  0.000000  1.154701 -0.000000 )
               b(3) = (  0.000000  0.000000  0.162094 )

     PseudoPot. # 1 for Ga read from file:
     /home/mclaro/pseudo/ONCVPSP/sg15/Ga_ONCV_PBE_fr.upf
     MD5 check sum: 291fdaf421ec3a7833e0cf5917f67014
     Pseudo is Norm-conserving, Zval = 13.0
     Generated using ONCVPSP code by D. R. Hamann
     Using radial grid of 1926 points, 10 beta functions with:
                l(1) =   0
                l(2) =   0
                l(3) =   1
                l(4) =   1
                l(5) =   1
                l(6) =   1
                l(7) =   2
                l(8) =   2
                l(9) =   2
               l(10) =   2

     PseudoPot. # 2 for S  read from file:
     /home/mclaro/pseudo/ONCVPSP/sg15/S_ONCV_PBE_fr.upf
     MD5 check sum: 5283c4e0603dd04c7219414e5521bad4
     Pseudo is Norm-conserving, Zval =  6.0
     Generated using ONCVPSP code by D. R. Hamann
     Using radial grid of 1146 points,  6 beta functions with:
                l(1) =   0
                l(2) =   0
                l(3) =   1
                l(4) =   1
                l(5) =   1
                l(6) =   1

     atomic species   valence    mass     pseudopotential
        Ga            13.00    69.72300     Ga( 1.00)
        S              6.00    32.06500     S ( 1.00)

      6 Sym. Ops. (no inversion) found

                                    s                        frac. trans.

      isym =  1     identity

 cryst.   s( 1) = (     1          0          0      )
                  (     0          1          0      )
                  (     0          0          1      )

 cart.    s( 1) = (  1.0000000  0.0000000 -0.0000000 )
                  (  0.0000000  1.0000000 -0.0000000 )
                  (  0.0000000  0.0000000  1.0000000 )

      isym =  2     120 deg rotation - cryst. axis [0,0,1]

[...]

      isym =  3     120 deg rotation - cryst. axis [0,0,-1]

[...]

      isym =  4     inv. 180 deg rotation - cart. axis [1,0,0]

[...]

      isym =  5     inv. 180 deg rotation - cryst. axis [0,1,0]

[...]

      isym =  6     inv. 180 deg rotation - cryst. axis [1,1,0]

 cryst.   s( 6) = (     0         -1          0      )
                  (    -1          0          0      )
                  (     0          0          1      )

 cart.    s( 6) = (  0.5000000 -0.8660254  0.0000000 )
                  ( -0.8660254 -0.5000000  0.0000000 )
                  (  0.0000000  0.0000000  1.0000000 )

   Cartesian axes

     site n.     atom                  positions (alat units)
         1           S   tau(   1) = (   0.0000000   0.0000000   1.4618049  )
         2           S   tau(   2) = (  -0.0000000   0.5773503   0.5923321  )
         3           S   tau(   3) = (   0.5000000   0.2886751   3.5189287  )
         4           S   tau(   4) = (   0.0000000   0.0000000   2.6480520  )
         5           S   tau(   5) = (  -0.0000000   0.5773503   5.5757237  )
         6           S   tau(   6) = (   0.5000000   0.2886751   4.7047725  )
         7           Ga  tau(   7) = (   0.5000000   0.2886751   1.7416346  )
         8           Ga  tau(   8) = (   0.0000000   0.0000000   0.3125632  )
         9           Ga  tau(   9) = (  -0.0000000   0.5773503   3.7986932  )
        10           Ga  tau(  10) = (   0.5000000   0.2886751   2.3681520  )
        11           Ga  tau(  11) = (   0.0000000   0.0000000   5.8554796  )
        12           Ga  tau(  12) = (  -0.0000000   0.5773503   4.4249882  )

   Crystallographic axes

     site n.     atom                  positions (cryst. coord.)
         1           S   tau(   1) = (  0.0000000  0.0000000  0.2369504  )
         2           S   tau(   2) = (  0.3333333  0.6666667  0.0960137  )
         3           S   tau(   3) = (  0.6666667  0.3333333  0.5703987  )
         4           S   tau(   4) = (  0.0000000  0.0000000  0.4292344  )
         5           S   tau(   5) = (  0.3333333  0.6666667  0.9037937  )
         6           S   tau(   6) = (  0.6666667  0.3333333  0.7626174  )
         7           Ga  tau(   7) = (  0.6666667  0.3333333  0.2823093  )
         8           Ga  tau(   8) = (  0.0000000 -0.0000000  0.0506648  )
         9           Ga  tau(   9) = (  0.3333333  0.6666667  0.6157470  )
        10           Ga  tau(  10) = (  0.6666667  0.3333333  0.3838642  )
        11           Ga  tau(  11) = ( -0.0000000  0.0000000  0.9491406  )
        12           Ga  tau(  12) = (  0.3333333  0.6666667  0.7172659  )

     number of k points=   119
                       cart. coord. in units 2pi/alat
        k(    1) = (   0.0000000   0.0000000   0.0000000), wk =   0.0008889
        k(    2) = (   0.0000000   0.0000000   0.0324189), wk =   0.0017778
        k(    3) = (   0.0000000   0.0000000   0.0648378), wk =   0.0017778
        k(    4) = (   0.0000000   0.0769800  -0.0000000), wk =   0.0053333
        k(    5) = (   0.0000000   0.0769800   0.0324189), wk =   0.0053333
        k(    6) = (   0.0000000   0.0769800   0.0648378), wk =   0.0053333
        k(    7) = (   0.0000000   0.1539601  -0.0000000), wk =   0.0053333
        k(    8) = (   0.0000000   0.1539601   0.0324189), wk =   0.0053333
        k(    9) = (   0.0000000   0.1539601   0.0648378), wk =   0.0053333
        k(   10) = (   0.0000000   0.2309401  -0.0000000), wk =   0.0053333
        k(   11) = (   0.0000000   0.2309401   0.0324189), wk =   0.0053333
        k(   12) = (   0.0000000   0.2309401   0.0648378), wk =   0.0053333
        k(   13) = (   0.0000000   0.3079201  -0.0000000), wk =   0.0053333
        k(   14) = (   0.0000000   0.3079201   0.0324189), wk =   0.0053333
        k(   15) = (   0.0000000   0.3079201   0.0648378), wk =   0.0053333
        k(   16) = (   0.0000000   0.3849002  -0.0000000), wk =   0.0053333
        k(   17) = (   0.0000000   0.3849002   0.0324189), wk =   0.0053333
        k(   18) = (   0.0000000   0.3849002   0.0648378), wk =   0.0053333
        k(   19) = (   0.0000000   0.4618802  -0.0000000), wk =   0.0053333
        k(   20) = (   0.0000000   0.4618802   0.0324189), wk =   0.0053333
        k(   21) = (   0.0000000   0.4618802   0.0648378), wk =   0.0053333
        k(   22) = (   0.0000000   0.5388603  -0.0000000), wk =   0.0053333
        k(   23) = (   0.0000000   0.5388603   0.0324189), wk =   0.0053333
        k(   24) = (   0.0000000   0.5388603   0.0648378), wk =   0.0053333
        k(   25) = (   0.0666667   0.1154701  -0.0000000), wk =   0.0053333
        k(   26) = (   0.0666667   0.1154701   0.0324189), wk =   0.0106667
        k(   27) = (   0.0666667   0.1154701   0.0648378), wk =   0.0106667
        k(   28) = (   0.0666667   0.1924501  -0.0000000), wk =   0.0106667
        k(   29) = (   0.0666667   0.1924501   0.0324189), wk =   0.0106667
        k(   30) = (   0.0666667   0.1924501   0.0648378), wk =   0.0106667
        k(   31) = (   0.0666667   0.2694301  -0.0000000), wk =   0.0106667
        k(   32) = (   0.0666667   0.2694301   0.0324189), wk =   0.0106667
        k(   33) = (   0.0666667   0.2694301   0.0648378), wk =   0.0106667
        k(   34) = (   0.0666667   0.3464102  -0.0000000), wk =   0.0106667
        k(   35) = (   0.0666667   0.3464102   0.0324189), wk =   0.0106667
        k(   36) = (   0.0666667   0.3464102   0.0648378), wk =   0.0106667
        k(   37) = (   0.0666667   0.4233902  -0.0000000), wk =   0.0106667
        k(   38) = (   0.0666667   0.4233902   0.0324189), wk =   0.0106667
        k(   39) = (   0.0666667   0.4233902   0.0648378), wk =   0.0106667
        k(   40) = (   0.0666667   0.5003702  -0.0000000), wk =   0.0106667
        k(   41) = (   0.0666667   0.5003702   0.0324189), wk =   0.0106667
        k(   42) = (   0.0666667   0.5003702   0.0648378), wk =   0.0106667
        k(   43) = (   0.0666667   0.5773503  -0.0000000), wk =   0.0053333
        k(   44) = (   0.0666667   0.5773503   0.0324189), wk =   0.0106667
        k(   45) = (   0.0666667   0.5773503   0.0648378), wk =   0.0106667
        k(   46) = (   0.1333333   0.2309401  -0.0000000), wk =   0.0053333
        k(   47) = (   0.1333333   0.2309401   0.0324189), wk =   0.0106667
        k(   48) = (   0.1333333   0.2309401   0.0648378), wk =   0.0106667
        k(   49) = (   0.1333333   0.3079201  -0.0000000), wk =   0.0106667
        k(   50) = (   0.1333333   0.3079201   0.0324189), wk =   0.0106667
        k(   51) = (   0.1333333   0.3079201   0.0648378), wk =   0.0106667
        k(   52) = (   0.1333333   0.3849002  -0.0000000), wk =   0.0106667
        k(   53) = (   0.1333333   0.3849002   0.0324189), wk =   0.0106667
        k(   54) = (   0.1333333   0.3849002   0.0648378), wk =   0.0106667
        k(   55) = (   0.1333333   0.4618802  -0.0000000), wk =   0.0106667
        k(   56) = (   0.1333333   0.4618802   0.0324189), wk =   0.0106667
        k(   57) = (   0.1333333   0.4618802   0.0648378), wk =   0.0106667
        k(   58) = (   0.1333333   0.5388603  -0.0000000), wk =   0.0106667
        k(   59) = (   0.1333333   0.5388603   0.0324189), wk =   0.0106667
        k(   60) = (   0.1333333   0.5388603   0.0648378), wk =   0.0106667
[...]
        k(  105) = (  -0.0666667  -0.5003702   0.0648378), wk =   0.0106667
        k(  106) = (  -0.1333333  -0.3079201   0.0324189), wk =   0.0106667
        k(  107) = (  -0.1333333  -0.3079201   0.0648378), wk =   0.0106667
        k(  108) = (  -0.1333333  -0.3849002   0.0324189), wk =   0.0106667
        k(  109) = (  -0.1333333  -0.3849002   0.0648378), wk =   0.0106667
        k(  110) = (  -0.1333333  -0.4618802   0.0324189), wk =   0.0106667
        k(  111) = (  -0.1333333  -0.4618802   0.0648378), wk =   0.0106667
        k(  112) = (  -0.1333333  -0.5388603   0.0324189), wk =   0.0106667
        k(  113) = (  -0.1333333  -0.5388603   0.0648378), wk =   0.0106667
        k(  114) = (  -0.2000000  -0.4233902   0.0324189), wk =   0.0106667
        k(  115) = (  -0.2000000  -0.4233902   0.0648378), wk =   0.0106667
        k(  116) = (  -0.2000000  -0.5003702   0.0324189), wk =   0.0106667
        k(  117) = (  -0.2000000  -0.5003702   0.0648378), wk =   0.0106667
        k(  118) = (  -0.2666667  -0.5388603   0.0324189), wk =   0.0106667
        k(  119) = (  -0.2666667  -0.5388603   0.0648378), wk =   0.0106667

                       cryst. coord.
        k(    1) = (   0.0000000   0.0000000   0.0000000), wk =   0.0008889
        k(    2) = (   0.0000000   0.0000000   0.2000000), wk =   0.0017778
        k(    3) = (   0.0000000   0.0000000   0.4000000), wk =   0.0017778
        k(    4) = (   0.0000000   0.0666667   0.0000000), wk =   0.0053333
        k(    5) = (   0.0000000   0.0666667   0.2000000), wk =   0.0053333
        k(    6) = (   0.0000000   0.0666667   0.4000000), wk =   0.0053333
        k(    7) = (   0.0000000   0.1333333   0.0000000), wk =   0.0053333
        k(    8) = (   0.0000000   0.1333333   0.2000000), wk =   0.0053333
        k(    9) = (   0.0000000   0.1333333   0.4000000), wk =   0.0053333
        k(   10) = (   0.0000000   0.2000000   0.0000000), wk =   0.0053333
        k(   11) = (   0.0000000   0.2000000   0.2000000), wk =   0.0053333
        k(   12) = (   0.0000000   0.2000000   0.4000000), wk =   0.0053333
        k(   13) = (   0.0000000   0.2666667   0.0000000), wk =   0.0053333
        k(   14) = (   0.0000000   0.2666667   0.2000000), wk =   0.0053333
        k(   15) = (   0.0000000   0.2666667   0.4000000), wk =   0.0053333
        k(   16) = (   0.0000000   0.3333333   0.0000000), wk =   0.0053333
        k(   17) = (   0.0000000   0.3333333   0.2000000), wk =   0.0053333
        k(   18) = (   0.0000000   0.3333333   0.4000000), wk =   0.0053333
        k(   19) = (   0.0000000   0.4000000   0.0000000), wk =   0.0053333
        k(   20) = (   0.0000000   0.4000000   0.2000000), wk =   0.0053333
        k(   21) = (   0.0000000   0.4000000   0.4000000), wk =   0.0053333
        k(   22) = (   0.0000000   0.4666667  -0.0000000), wk =   0.0053333
        k(   23) = (   0.0000000   0.4666667   0.2000000), wk =   0.0053333
        k(   24) = (   0.0000000   0.4666667   0.4000000), wk =   0.0053333
        k(   25) = (   0.0666667   0.0666667   0.0000000), wk =   0.0053333
        k(   26) = (   0.0666667   0.0666667   0.2000000), wk =   0.0106667
        k(   27) = (   0.0666667   0.0666667   0.4000000), wk =   0.0106667
        k(   28) = (   0.0666667   0.1333333   0.0000000), wk =   0.0106667
        k(   29) = (   0.0666667   0.1333333   0.2000000), wk =   0.0106667
        k(   30) = (   0.0666667   0.1333333   0.4000000), wk =   0.0106667
        k(   31) = (   0.0666667   0.2000000  -0.0000000), wk =   0.0106667
        k(   32) = (   0.0666667   0.2000000   0.2000000), wk =   0.0106667
        k(   33) = (   0.0666667   0.2000000   0.4000000), wk =   0.0106667
        k(   34) = (   0.0666667   0.2666667   0.0000000), wk =   0.0106667
        k(   35) = (   0.0666667   0.2666667   0.2000000), wk =   0.0106667
        k(   36) = (   0.0666667   0.2666667   0.4000000), wk =   0.0106667
        k(   37) = (   0.0666667   0.3333333  -0.0000000), wk =   0.0106667
        k(   38) = (   0.0666667   0.3333333   0.2000000), wk =   0.0106667
        k(   39) = (   0.0666667   0.3333333   0.4000000), wk =   0.0106667
        k(   40) = (   0.0666667   0.4000000   0.0000000), wk =   0.0106667
        k(   41) = (   0.0666667   0.4000000   0.2000000), wk =   0.0106667
        k(   42) = (   0.0666667   0.4000000   0.4000000), wk =   0.0106667
        k(   43) = (   0.0666667   0.4666667  -0.0000000), wk =   0.0053333
        k(   44) = (   0.0666667   0.4666667   0.2000000), wk =   0.0106667
        k(   45) = (   0.0666667   0.4666667   0.4000000), wk =   0.0106667
        k(   46) = (   0.1333333   0.1333333   0.0000000), wk =   0.0053333
        k(   47) = (   0.1333333   0.1333333   0.2000000), wk =   0.0106667
        k(   48) = (   0.1333333   0.1333333   0.4000000), wk =   0.0106667
        k(   49) = (   0.1333333   0.2000000   0.0000000), wk =   0.0106667
        k(   50) = (   0.1333333   0.2000000   0.2000000), wk =   0.0106667
        k(   51) = (   0.1333333   0.2000000   0.4000000), wk =   0.0106667
        k(   52) = (   0.1333333   0.2666667   0.0000000), wk =   0.0106667
        k(   53) = (   0.1333333   0.2666667   0.2000000), wk =   0.0106667
        k(   54) = (   0.1333333   0.2666667   0.4000000), wk =   0.0106667
        k(   55) = (   0.1333333   0.3333333   0.0000000), wk =   0.0106667
        k(   56) = (   0.1333333   0.3333333   0.2000000), wk =   0.0106667
        k(   57) = (   0.1333333   0.3333333   0.4000000), wk =   0.0106667
        k(   58) = (   0.1333333   0.4000000  -0.0000000), wk =   0.0106667
        k(   59) = (   0.1333333   0.4000000   0.2000000), wk =   0.0106667
        k(   60) = (   0.1333333   0.4000000   0.4000000), wk =   0.0106667
[...]
        k(  105) = (  -0.0666667  -0.4000000   0.4000000), wk =   0.0106667
        k(  106) = (  -0.1333333  -0.2000000   0.2000000), wk =   0.0106667
        k(  107) = (  -0.1333333  -0.2000000   0.4000000), wk =   0.0106667
        k(  108) = (  -0.1333333  -0.2666667   0.2000000), wk =   0.0106667
        k(  109) = (  -0.1333333  -0.2666667   0.4000000), wk =   0.0106667
        k(  110) = (  -0.1333333  -0.3333333   0.2000000), wk =   0.0106667
        k(  111) = (  -0.1333333  -0.3333333   0.4000000), wk =   0.0106667
        k(  112) = (  -0.1333333  -0.4000000   0.2000000), wk =   0.0106667
        k(  113) = (  -0.1333333  -0.4000000   0.4000000), wk =   0.0106667
        k(  114) = (  -0.2000000  -0.2666667   0.2000000), wk =   0.0106667
        k(  115) = (  -0.2000000  -0.2666667   0.4000000), wk =   0.0106667
        k(  116) = (  -0.2000000  -0.3333333   0.2000000), wk =   0.0106667
        k(  117) = (  -0.2000000  -0.3333333   0.4000000), wk =   0.0106667
        k(  118) = (  -0.2666667  -0.3333333   0.2000000), wk =   0.0106667
        k(  119) = (  -0.2666667  -0.3333333   0.4000000), wk =   0.0106667

     Initial potential from superposition of free atoms

     starting charge  113.98371, renormalised to  114.00000
     Starting wfc are  156 randomized atomic wfcs

     Self-consistent Calculation

     iteration #  1     ecut=   150.00 Ry     beta=0.70
     Davidson diagonalization with overlap
     ethr =  1.00E-02,  avg # of iterations =  2.0

     Threshold (ethr) on eigenvalues was too large:
     Diagonalizing with lowered threshold

     Davidson diagonalization with overlap
     ethr =  3.47E-04,  avg # of iterations =  2.1

     total energy              =    -908.58704415 Ry
     Harris-Foulkes estimate   =    -908.80904995 Ry
     estimated scf accuracy    <       0.37601599 Ry

[...]

     total energy              =    -908.69355253 Ry
     Harris-Foulkes estimate   =    -908.69355253 Ry
     estimated scf accuracy    <          3.9E-09 Ry

     iteration # 13     ecut=   150.00 Ry     beta=0.70
     Davidson diagonalization with overlap
     ethr =  3.39E-12,  avg # of iterations =  3.9

     End of self-consistent calculation

          k = 0.0000 0.0000 0.0000 ( 51337 PWs)   bands (ev):

    -7.6602  -7.6602  -7.6563  -7.6563  -7.6553  -7.6553  -7.4860  -7.4860
    -7.4854  -7.4854  -7.4800  -7.4800  -7.4491  -7.4491  -7.4489  -7.4489
    -7.4483  -7.4483  -7.4191  -7.4191  -7.4190  -7.4190  -7.4185  -7.4185
    -7.1399  -7.1399  -7.1393  -7.1393  -7.0878  -7.0878  -7.0764  -7.0764
    -7.0468  -7.0468  -7.0466  -7.0466  -7.0459  -7.0459  -7.0226  -7.0226
    -7.0222  -7.0222  -6.9971  -6.9971  -6.9967  -6.9967  -6.9942  -6.9942
    -6.9702  -6.9702  -6.9237  -6.9237  -6.9232  -6.9232  -6.8775  -6.8775
    -6.8420  -6.8420  -6.8412  -6.8412  -6.7798  -6.7798  -6.7796  -6.7796
    -6.7794  -6.7794  -6.2901  -6.2901  -6.2894  -6.2894  -6.1744  -6.1744
     0.2229   0.2229   0.5693   0.5693   0.5708   0.5708   3.4294   3.4294
     3.4324   3.4324   4.4907   4.4907   5.6390   5.6390   5.6398   5.6398
     5.7092   5.7092   5.7115   5.7115   5.7126   5.7126   5.7826   5.7826
     5.7966   5.7966   5.8706   5.8706   5.8745   5.8745   5.8751   5.8751
     5.9466   5.9466   5.9476   5.9476   6.2412   6.2412   7.4103   7.4103
     7.4123   7.4123

     occupation numbers
     1.0000   1.0000   1.0000   1.0000   1.0000   1.0000   1.0000   1.0000
     1.0000   1.0000   1.0000   1.0000   1.0000   1.0000   1.0000   1.0000
     1.0000   1.0000   1.0000   1.0000   1.0000   1.0000   1.0000   1.0000
     1.0000   1.0000   1.0000   1.0000   1.0000   1.0000   1.0000   1.0000
     1.0000   1.0000   1.0000   1.0000   1.0000   1.0000   1.0000   1.0000
     1.0000   1.0000   1.0000   1.0000   1.0000   1.0000   1.0000   1.0000
     1.0000   1.0000   1.0000   1.0000   1.0000   1.0000   1.0000   1.0000
     1.0000   1.0000   1.0000   1.0000   1.0000   1.0000   1.0000   1.0000
     1.0000   1.0000   1.0000   1.0000   1.0000   1.0000   1.0000   1.0000
     1.0000   1.0000   1.0000   1.0000   1.0000   1.0000   1.0000   1.0000
     1.0000   1.0000   1.0000   1.0000   1.0000   1.0000   1.0000   1.0000
     1.0000   1.0000   1.0000   1.0000   1.0000   1.0000   1.0000   1.0000
     1.0000   1.0000   1.0000   1.0000   1.0000   1.0000   1.0000   1.0000
     1.0000   1.0000   1.0000   1.0000   1.0000   1.0000   1.0000   1.0000
     1.0000   1.0000

[...]

          k = 0.0000-0.5389 0.0648 ( 51295 PWs)   bands (ev):

[...]

          k =-0.0667-0.1925 0.0324 ( 51235 PWs)   bands (ev):

[...]

          k =-0.2667-0.5389 0.0648 ( 51269 PWs)   bands (ev):

    -7.7200  -7.7186  -7.7176  -7.6789  -7.6775  -7.6765  -7.6538  -7.6529
    -7.6514  -7.6461  -7.6458  -7.6448  -7.5808  -7.5806  -7.5794  -7.4760
    -7.4759  -7.4750  -7.4119  -7.4115  -7.4108  -7.3941  -7.3939  -7.3933
    -7.3292  -7.3284  -7.3272  -7.1518  -7.1513  -7.1505  -7.1316  -7.1310
    -7.1302  -7.0772  -7.0769  -7.0764  -6.9858  -6.9856  -6.9851  -6.9358
    -6.9356  -6.9351  -6.8742  -6.8740  -6.8737  -6.8735  -6.8733  -6.8730
    -6.8666  -6.8663  -6.8658  -6.8352  -6.8350  -6.8348  -6.7043  -6.7041
    -6.7040  -6.6998  -6.6995  -6.6994  -4.8046  -4.7862  -4.7787  -4.7692
    -4.7606  -4.7437  -4.5844  -4.5742  -4.5667  -4.5565  -4.5471  -4.5372
    -0.3734  -0.3648  -0.3610  -0.3582  -0.3526  -0.3459   0.7827   0.7964
     0.8032   0.8056   0.8167   0.8267   2.2987   2.3037   2.3153   2.3200
     2.3452   2.3615   2.8808   2.8861   2.9369   2.9422   2.9446   2.9500
     4.0163   4.0291   4.1511   4.1641   4.3392   4.3567   5.0782   5.0877
     5.1863   5.1958   5.2171   5.2242   5.3434   5.3598   5.4865   5.4980
     5.5980   5.6080

     occupation numbers
     1.0000   1.0000   1.0000   1.0000   1.0000   1.0000   1.0000   1.0000
     1.0000   1.0000   1.0000   1.0000   1.0000   1.0000   1.0000   1.0000
     1.0000   1.0000   1.0000   1.0000   1.0000   1.0000   1.0000   1.0000
     1.0000   1.0000   1.0000   1.0000   1.0000   1.0000   1.0000   1.0000
     1.0000   1.0000   1.0000   1.0000   1.0000   1.0000   1.0000   1.0000
     1.0000   1.0000   1.0000   1.0000   1.0000   1.0000   1.0000   1.0000
     1.0000   1.0000   1.0000   1.0000   1.0000   1.0000   1.0000   1.0000
     1.0000   1.0000   1.0000   1.0000   1.0000   1.0000   1.0000   1.0000
     1.0000   1.0000   1.0000   1.0000   1.0000   1.0000   1.0000   1.0000
     1.0000   1.0000   1.0000   1.0000   1.0000   1.0000   1.0000   1.0000
     1.0000   1.0000   1.0000   1.0000   1.0000   1.0000   1.0000   1.0000
     1.0000   1.0000   1.0000   1.0000   1.0000   1.0000   1.0000   1.0000
     1.0000   1.0000   1.0000   1.0000   1.0000   1.0000   1.0000   1.0000
     1.0000   1.0000   1.0000   1.0000   1.0000   1.0000   1.0000   1.0000
     1.0000   1.0000

     highest occupied level (ev):     7.7716

!    total energy              =    -908.69355253 Ry
     Harris-Foulkes estimate   =    -908.69355253 Ry
     estimated scf accuracy    <          3.2E-10 Ry

     The total energy is the sum of the following terms:

     one-electron contribution =    -597.47985365 Ry
     hartree contribution      =     373.15827732 Ry
     xc contribution           =    -133.47938222 Ry
     ewald contribution        =    -550.89259398 Ry

     convergence has been achieved in  13 iterations

     Writing output data file GaSgamma.save

     General routines

     Parallel routines

   This run was terminated on:   0: 8:10   7Apr2022

   JOB DONE.