     Program PWSCF v.6.1 (svn rev. 13369) starts on  7Apr2022 at  0: 8:12

     Current dimensions of program PWSCF are:
     Max number of different atomic species (ntypx) = 10
     Max number of k-points (npk) =  40000
     Max angular momentum in pseudopotentials (lmaxx) =  3

     IMPORTANT: XC functional enforced from input :
     Exchange-correlation      = SLA+PW+PSX+PSC ( 1  4 10  8 0 0)
     Any further DFT definition will be discarded
     Please, verify this is what you really want

     bravais-lattice index     =            0
     lattice parameter (alat)  =       7.7111  a.u.
     unit-cell volume          =    2554.9996 (a.u.)^3
     number of atoms/cell      =           12
     number of atomic types    =            2
     number of electrons       =       174.00
     number of Kohn-Sham states=          174
     kinetic-energy cutoff     =     150.0000  Ry
     charge density cutoff     =     600.0000  Ry
     convergence threshold     =      7.0E-10
     mixing beta               =       0.7000
     number of iterations used =            8  plain     mixing
     Exchange-correlation      = SLA+PW+PSX+PSC ( 1  4 10  8 0 0)
     Non magnetic calculation with spin-orbit

     celldm(1)=   7.711093  celldm(2)=   0.000000  celldm(3)=   0.000000
     celldm(4)=   0.000000  celldm(5)=   0.000000  celldm(6)=   0.000000

     crystal axes: (cart. coord. in units of alat)
               a(1) = (   1.000000   0.000000   0.000000 )
               a(2) = (  -0.500000   0.866025   0.000000 )
               a(3) = (   0.000000   0.000000   6.434464 )

     reciprocal axes: (cart. coord. in units 2 pi/alat)
               b(1) = (  1.000000  0.577350 -0.000000 )
               b(2) = (  0.000000  1.154701 -0.000000 )
               b(3) = (  0.000000  0.000000  0.155413 )

     PseudoPot. # 1 for Ga read from file:
     /home/mclaro/pseudo/ONCVPSP/sg15/Ga_ONCV_PBE_fr.upf
     MD5 check sum: 291fdaf421ec3a7833e0cf5917f67014
     Pseudo is Norm-conserving, Zval = 13.0
     Generated using ONCVPSP code by D. R. Hamann
     Using radial grid of 1926 points, 10 beta functions with:
                l(1) =   0
                l(2) =   0
                l(3) =   1
                l(4) =   1
                l(5) =   1
                l(6) =   1
                l(7) =   2
                l(8) =   2
                l(9) =   2
               l(10) =   2

     PseudoPot. # 2 for Te read from file:
     /home/mclaro/pseudo/ONCVPSP/sg15/Te_ONCV_PBE_fr.upf
     MD5 check sum: fbe956063e00beff679dd20f3414d505
     Pseudo is Norm-conserving, Zval = 16.0
     Generated using ONCVPSP code by D. R. Hamann
     Using radial grid of 1324 points, 10 beta functions with:
                l(1) =   0
                l(2) =   0
                l(3) =   1
                l(4) =   1
                l(5) =   1
                l(6) =   1
                l(7) =   2
                l(8) =   2
                l(9) =   2
               l(10) =   2

     atomic species   valence    mass     pseudopotential
        Ga            13.00    69.72300     Ga( 1.00)
        Te            16.00   127.60000     Te( 1.00)

      6 Sym. Ops. (no inversion) found

                                    s                        frac. trans.

      isym =  1     identity

 cryst.   s( 1) = (     1          0          0      )
                  (     0          1          0      )
                  (     0          0          1      )

 cart.    s( 1) = (  1.0000000  0.0000000  0.0000000 )
                  (  0.0000000  1.0000000 -0.0000000 )
                  (  0.0000000  0.0000000  1.0000000 )

      isym =  2     120 deg rotation - cryst. axis [0,0,1]

[...]

      isym =  3     120 deg rotation - cryst. axis [0,0,-1]

[...]

      isym =  4     inv. 180 deg rotation - cart. axis [1,0,0]

[...]

      isym =  5     inv. 180 deg rotation - cryst. axis [0,1,0]

[...]

      isym =  6     inv. 180 deg rotation - cryst. axis [1,1,0]

 cryst.   s( 6) = (     0         -1          0      )
                  (    -1          0          0      )
                  (     0          0          1      )

 cart.    s( 6) = (  0.5000000 -0.8660254  0.0000000 )
                  ( -0.8660254 -0.5000000  0.0000000 )
                  (  0.0000000  0.0000000  1.0000000 )

   Cartesian axes

     site n.     atom                  positions (alat units)
         1           Te  tau(   1) = (   0.0000000   0.0000000   1.5102917  )
         2           Te  tau(   2) = (  -0.0000000   0.5773503   0.6324782  )
         3           Te  tau(   3) = (   0.5000000   0.2886751   3.6558143  )
         4           Te  tau(   4) = (   0.0000000   0.0000000   2.7766336  )
         5           Te  tau(   5) = (  -0.0000000   0.5773503   5.8007384  )
         6           Te  tau(   6) = (   0.5000000   0.2886751   4.9221836  )
         7           Ga  tau(   7) = (   0.5000000   0.2886751   1.8326944  )
         8           Ga  tau(   8) = (   0.0000000   0.0000000   0.3093425  )
         9           Ga  tau(   9) = (  -0.0000000   0.5773503   3.9782367  )
        10           Ga  tau(  10) = (   0.5000000   0.2886751   2.4534483  )
        11           Ga  tau(  11) = (   0.0000000   0.0000000   6.1230817  )
        12           Ga  tau(  12) = (  -0.0000000   0.5773503   4.5989740  )

   Crystallographic axes

     site n.     atom                  positions (cryst. coord.)
         1           Te  tau(   1) = (  0.0000000  0.0000000  0.2347191  )
         2           Te  tau(   2) = (  0.3333333  0.6666667  0.0982954  )
         3           Te  tau(   3) = (  0.6666667  0.3333333  0.5681614  )
         4           Te  tau(   4) = (  0.0000000  0.0000000  0.4315252  )
         5           Te  tau(   5) = (  0.3333333  0.6666667  0.9015107  )
         6           Te  tau(   6) = (  0.6666667  0.3333333  0.7649718  )
         7           Ga  tau(   7) = (  0.6666667  0.3333333  0.2848247  )
         8           Ga  tau(   8) = (  0.0000000  0.0000000  0.0480759  )
         9           Ga  tau(   9) = (  0.3333333  0.6666667  0.6182701  )
        10           Ga  tau(  10) = (  0.6666667  0.3333333  0.3812980  )
        11           Ga  tau(  11) = (  0.0000000  0.0000000  0.9516071  )
        12           Ga  tau(  12) = (  0.3333333  0.6666667  0.7147408  )

     number of k points=   119
                       cart. coord. in units 2pi/alat
        k(    1) = (   0.0000000   0.0000000   0.0000000), wk =   0.0008889
        k(    2) = (   0.0000000   0.0000000   0.0310826), wk =   0.0017778
        k(    3) = (   0.0000000   0.0000000   0.0621652), wk =   0.0017778
        k(    4) = (   0.0000000   0.0769800  -0.0000000), wk =   0.0053333
        k(    5) = (   0.0000000   0.0769800   0.0310826), wk =   0.0053333
        k(    6) = (   0.0000000   0.0769800   0.0621652), wk =   0.0053333
        k(    7) = (   0.0000000   0.1539601  -0.0000000), wk =   0.0053333
        k(    8) = (   0.0000000   0.1539601   0.0310826), wk =   0.0053333
        k(    9) = (   0.0000000   0.1539601   0.0621652), wk =   0.0053333
        k(   10) = (   0.0000000   0.2309401  -0.0000000), wk =   0.0053333
        k(   11) = (   0.0000000   0.2309401   0.0310826), wk =   0.0053333
        k(   12) = (   0.0000000   0.2309401   0.0621652), wk =   0.0053333
        k(   13) = (   0.0000000   0.3079201  -0.0000000), wk =   0.0053333
        k(   14) = (   0.0000000   0.3079201   0.0310826), wk =   0.0053333
        k(   15) = (   0.0000000   0.3079201   0.0621652), wk =   0.0053333
        k(   16) = (   0.0000000   0.3849002  -0.0000000), wk =   0.0053333
        k(   17) = (   0.0000000   0.3849002   0.0310826), wk =   0.0053333
        k(   18) = (   0.0000000   0.3849002   0.0621652), wk =   0.0053333
        k(   19) = (   0.0000000   0.4618802  -0.0000000), wk =   0.0053333
        k(   20) = (   0.0000000   0.4618802   0.0310826), wk =   0.0053333
        k(   21) = (   0.0000000   0.4618802   0.0621652), wk =   0.0053333
        k(   22) = (   0.0000000   0.5388603  -0.0000000), wk =   0.0053333
        k(   23) = (   0.0000000   0.5388603   0.0310826), wk =   0.0053333
        k(   24) = (   0.0000000   0.5388603   0.0621652), wk =   0.0053333
        k(   25) = (   0.0666667   0.1154701  -0.0000000), wk =   0.0053333
        k(   26) = (   0.0666667   0.1154701   0.0310826), wk =   0.0106667
        k(   27) = (   0.0666667   0.1154701   0.0621652), wk =   0.0106667
        k(   28) = (   0.0666667   0.1924501  -0.0000000), wk =   0.0106667
        k(   29) = (   0.0666667   0.1924501   0.0310826), wk =   0.0106667
        k(   30) = (   0.0666667   0.1924501   0.0621652), wk =   0.0106667
        k(   31) = (   0.0666667   0.2694301  -0.0000000), wk =   0.0106667
        k(   32) = (   0.0666667   0.2694301   0.0310826), wk =   0.0106667
        k(   33) = (   0.0666667   0.2694301   0.0621652), wk =   0.0106667
        k(   34) = (   0.0666667   0.3464102  -0.0000000), wk =   0.0106667
        k(   35) = (   0.0666667   0.3464102   0.0310826), wk =   0.0106667
        k(   36) = (   0.0666667   0.3464102   0.0621652), wk =   0.0106667
        k(   37) = (   0.0666667   0.4233902  -0.0000000), wk =   0.0106667
        k(   38) = (   0.0666667   0.4233902   0.0310826), wk =   0.0106667
        k(   39) = (   0.0666667   0.4233902   0.0621652), wk =   0.0106667
        k(   40) = (   0.0666667   0.5003702  -0.0000000), wk =   0.0106667
        k(   41) = (   0.0666667   0.5003702   0.0310826), wk =   0.0106667
        k(   42) = (   0.0666667   0.5003702   0.0621652), wk =   0.0106667
        k(   43) = (   0.0666667   0.5773503  -0.0000000), wk =   0.0053333
        k(   44) = (   0.0666667   0.5773503   0.0310826), wk =   0.0106667
        k(   45) = (   0.0666667   0.5773503   0.0621652), wk =   0.0106667
        k(   46) = (   0.1333333   0.2309401  -0.0000000), wk =   0.0053333
        k(   47) = (   0.1333333   0.2309401   0.0310826), wk =   0.0106667
        k(   48) = (   0.1333333   0.2309401   0.0621652), wk =   0.0106667
        k(   49) = (   0.1333333   0.3079201  -0.0000000), wk =   0.0106667
        k(   50) = (   0.1333333   0.3079201   0.0310826), wk =   0.0106667
        k(   51) = (   0.1333333   0.3079201   0.0621652), wk =   0.0106667
        k(   52) = (   0.1333333   0.3849002  -0.0000000), wk =   0.0106667
        k(   53) = (   0.1333333   0.3849002   0.0310826), wk =   0.0106667
        k(   54) = (   0.1333333   0.3849002   0.0621652), wk =   0.0106667
        k(   55) = (   0.1333333   0.4618802  -0.0000000), wk =   0.0106667
        k(   56) = (   0.1333333   0.4618802   0.0310826), wk =   0.0106667
        k(   57) = (   0.1333333   0.4618802   0.0621652), wk =   0.0106667
        k(   58) = (   0.1333333   0.5388603  -0.0000000), wk =   0.0106667
        k(   59) = (   0.1333333   0.5388603   0.0310826), wk =   0.0106667
        k(   60) = (   0.1333333   0.5388603   0.0621652), wk =   0.0106667
[...]
        k(  105) = (  -0.0666667  -0.5003702   0.0621652), wk =   0.0106667
        k(  106) = (  -0.1333333  -0.3079201   0.0310826), wk =   0.0106667
        k(  107) = (  -0.1333333  -0.3079201   0.0621652), wk =   0.0106667
        k(  108) = (  -0.1333333  -0.3849002   0.0310826), wk =   0.0106667
        k(  109) = (  -0.1333333  -0.3849002   0.0621652), wk =   0.0106667
        k(  110) = (  -0.1333333  -0.4618802   0.0310826), wk =   0.0106667
        k(  111) = (  -0.1333333  -0.4618802   0.0621652), wk =   0.0106667
        k(  112) = (  -0.1333333  -0.5388603   0.0310826), wk =   0.0106667
        k(  113) = (  -0.1333333  -0.5388603   0.0621652), wk =   0.0106667
        k(  114) = (  -0.2000000  -0.4233902   0.0310826), wk =   0.0106667
        k(  115) = (  -0.2000000  -0.4233902   0.0621652), wk =   0.0106667
        k(  116) = (  -0.2000000  -0.5003702   0.0310826), wk =   0.0106667
        k(  117) = (  -0.2000000  -0.5003702   0.0621652), wk =   0.0106667
        k(  118) = (  -0.2666667  -0.5388603   0.0310826), wk =   0.0106667
        k(  119) = (  -0.2666667  -0.5388603   0.0621652), wk =   0.0106667

                       cryst. coord.
        k(    1) = (   0.0000000   0.0000000   0.0000000), wk =   0.0008889
        k(    2) = (   0.0000000   0.0000000   0.2000000), wk =   0.0017778
        k(    3) = (   0.0000000   0.0000000   0.4000000), wk =   0.0017778
        k(    4) = (   0.0000000   0.0666667   0.0000000), wk =   0.0053333
        k(    5) = (   0.0000000   0.0666667   0.2000000), wk =   0.0053333
        k(    6) = (   0.0000000   0.0666667   0.4000000), wk =   0.0053333
        k(    7) = (   0.0000000   0.1333333   0.0000000), wk =   0.0053333
        k(    8) = (   0.0000000   0.1333333   0.2000000), wk =   0.0053333
        k(    9) = (   0.0000000   0.1333333   0.4000000), wk =   0.0053333
        k(   10) = (   0.0000000   0.2000000   0.0000000), wk =   0.0053333
        k(   11) = (   0.0000000   0.2000000   0.2000000), wk =   0.0053333
        k(   12) = (   0.0000000   0.2000000   0.4000000), wk =   0.0053333
        k(   13) = (   0.0000000   0.2666667   0.0000000), wk =   0.0053333
        k(   14) = (   0.0000000   0.2666667   0.2000000), wk =   0.0053333
        k(   15) = (   0.0000000   0.2666667   0.4000000), wk =   0.0053333
        k(   16) = (   0.0000000   0.3333333  -0.0000000), wk =   0.0053333
        k(   17) = (   0.0000000   0.3333333   0.2000000), wk =   0.0053333
        k(   18) = (   0.0000000   0.3333333   0.4000000), wk =   0.0053333
        k(   19) = (   0.0000000   0.4000000   0.0000000), wk =   0.0053333
        k(   20) = (   0.0000000   0.4000000   0.2000000), wk =   0.0053333
        k(   21) = (   0.0000000   0.4000000   0.4000000), wk =   0.0053333
        k(   22) = (   0.0000000   0.4666667  -0.0000000), wk =   0.0053333
        k(   23) = (   0.0000000   0.4666667   0.2000000), wk =   0.0053333
        k(   24) = (   0.0000000   0.4666667   0.4000000), wk =   0.0053333
        k(   25) = (   0.0666667   0.0666667   0.0000000), wk =   0.0053333
        k(   26) = (   0.0666667   0.0666667   0.2000000), wk =   0.0106667
        k(   27) = (   0.0666667   0.0666667   0.4000000), wk =   0.0106667
        k(   28) = (   0.0666667   0.1333333   0.0000000), wk =   0.0106667
        k(   29) = (   0.0666667   0.1333333   0.2000000), wk =   0.0106667
        k(   30) = (   0.0666667   0.1333333   0.4000000), wk =   0.0106667
        k(   31) = (   0.0666667   0.2000000  -0.0000000), wk =   0.0106667
        k(   32) = (   0.0666667   0.2000000   0.2000000), wk =   0.0106667
        k(   33) = (   0.0666667   0.2000000   0.4000000), wk =   0.0106667
        k(   34) = (   0.0666667   0.2666667   0.0000000), wk =   0.0106667
        k(   35) = (   0.0666667   0.2666667   0.2000000), wk =   0.0106667
        k(   36) = (   0.0666667   0.2666667   0.4000000), wk =   0.0106667
        k(   37) = (   0.0666667   0.3333333   0.0000000), wk =   0.0106667
        k(   38) = (   0.0666667   0.3333333   0.2000000), wk =   0.0106667
        k(   39) = (   0.0666667   0.3333333   0.4000000), wk =   0.0106667
        k(   40) = (   0.0666667   0.4000000   0.0000000), wk =   0.0106667
        k(   41) = (   0.0666667   0.4000000   0.2000000), wk =   0.0106667
        k(   42) = (   0.0666667   0.4000000   0.4000000), wk =   0.0106667
        k(   43) = (   0.0666667   0.4666667  -0.0000000), wk =   0.0053333
        k(   44) = (   0.0666667   0.4666667   0.2000000), wk =   0.0106667
        k(   45) = (   0.0666667   0.4666667   0.4000000), wk =   0.0106667
        k(   46) = (   0.1333333   0.1333333   0.0000000), wk =   0.0053333
        k(   47) = (   0.1333333   0.1333333   0.2000000), wk =   0.0106667
        k(   48) = (   0.1333333   0.1333333   0.4000000), wk =   0.0106667
        k(   49) = (   0.1333333   0.2000000   0.0000000), wk =   0.0106667
        k(   50) = (   0.1333333   0.2000000   0.2000000), wk =   0.0106667
        k(   51) = (   0.1333333   0.2000000   0.4000000), wk =   0.0106667
        k(   52) = (   0.1333333   0.2666667   0.0000000), wk =   0.0106667
        k(   53) = (   0.1333333   0.2666667   0.2000000), wk =   0.0106667
        k(   54) = (   0.1333333   0.2666667   0.4000000), wk =   0.0106667
        k(   55) = (   0.1333333   0.3333333   0.0000000), wk =   0.0106667
        k(   56) = (   0.1333333   0.3333333   0.2000000), wk =   0.0106667
        k(   57) = (   0.1333333   0.3333333   0.4000000), wk =   0.0106667
        k(   58) = (   0.1333333   0.4000000  -0.0000000), wk =   0.0106667
        k(   59) = (   0.1333333   0.4000000   0.2000000), wk =   0.0106667
        k(   60) = (   0.1333333   0.4000000   0.4000000), wk =   0.0106667
[...]
        k(  105) = (  -0.0666667  -0.4000000   0.4000000), wk =   0.0106667
        k(  106) = (  -0.1333333  -0.2000000   0.2000000), wk =   0.0106667
        k(  107) = (  -0.1333333  -0.2000000   0.4000000), wk =   0.0106667
        k(  108) = (  -0.1333333  -0.2666667   0.2000000), wk =   0.0106667
        k(  109) = (  -0.1333333  -0.2666667   0.4000000), wk =   0.0106667
        k(  110) = (  -0.1333333  -0.3333333   0.2000000), wk =   0.0106667
        k(  111) = (  -0.1333333  -0.3333333   0.4000000), wk =   0.0106667
        k(  112) = (  -0.1333333  -0.4000000   0.2000000), wk =   0.0106667
        k(  113) = (  -0.1333333  -0.4000000   0.4000000), wk =   0.0106667
        k(  114) = (  -0.2000000  -0.2666667   0.2000000), wk =   0.0106667
        k(  115) = (  -0.2000000  -0.2666667   0.4000000), wk =   0.0106667
        k(  116) = (  -0.2000000  -0.3333333   0.2000000), wk =   0.0106667
        k(  117) = (  -0.2000000  -0.3333333   0.4000000), wk =   0.0106667
        k(  118) = (  -0.2666667  -0.3333333   0.2000000), wk =   0.0106667
        k(  119) = (  -0.2666667  -0.3333333   0.4000000), wk =   0.0106667

     Initial potential from superposition of free atoms

     starting charge  173.98261, renormalised to  174.00000
     Starting wfc are  216 randomized atomic wfcs

     Self-consistent Calculation

     iteration #  1     ecut=   150.00 Ry     beta=0.70
     Davidson diagonalization with overlap
     ethr =  1.00E-02,  avg # of iterations =  2.0

     Threshold (ethr) on eigenvalues was too large:
     Diagonalizing with lowered threshold

     Davidson diagonalization with overlap
     ethr =  8.77E-05,  avg # of iterations =  3.0

     total energy              =   -1833.15856601 Ry
     Harris-Foulkes estimate   =   -1833.22707331 Ry
     estimated scf accuracy    <       0.15849202 Ry

[...]

     total energy              =   -1833.18181020 Ry
     Harris-Foulkes estimate   =   -1833.18181020 Ry
     estimated scf accuracy    <          7.4E-10 Ry

     iteration # 14     ecut=   150.00 Ry     beta=0.70
     Davidson diagonalization with overlap
     ethr =  4.24E-13,  avg # of iterations =  4.2

     End of self-consistent calculation

          k = 0.0000 0.0000 0.0000 ( 78925 PWs)   bands (ev):

   -29.7816 -29.7816 -29.7812 -29.7812 -29.7812 -29.7812 -29.7794 -29.7794
   -29.7789 -29.7789 -29.7786 -29.7786 -29.7310 -29.7310 -29.7306 -29.7306
   -29.7306 -29.7306 -29.7299 -29.7299 -29.7295 -29.7295 -29.7292 -29.7292
   -28.3306 -28.3306 -28.3301 -28.3301 -28.3301 -28.3301 -28.3281 -28.3281
   -28.3276 -28.3276 -28.3273 -28.3273 -28.2865 -28.2865 -28.2860 -28.2860
   -28.2860 -28.2860 -28.2849 -28.2849 -28.2845 -28.2845 -28.2842 -28.2842
   -28.2647 -28.2647 -28.2643 -28.2643 -28.2643 -28.2643 -28.2636 -28.2636
   -28.2632 -28.2632 -28.2629 -28.2629  -7.4575  -7.4575  -7.4573  -7.4573
    -7.4571  -7.4571  -7.4237  -7.4237  -7.4235  -7.4235  -7.4232  -7.4232
    -7.4137  -7.4137  -7.4135  -7.4135  -7.4132  -7.4132  -7.4042  -7.4042
    -7.4040  -7.4040  -7.4037  -7.4037  -6.9977  -6.9977  -6.9975  -6.9975
    -6.9972  -6.9972  -6.9919  -6.9919  -6.9917  -6.9917  -6.9915  -6.9915
    -6.9763  -6.9763  -6.9761  -6.9761  -6.9758  -6.9758  -6.9447  -6.9447
    -6.9445  -6.9445  -6.9443  -6.9443  -6.8812  -6.8812  -6.8810  -6.8810
    -6.8808  -6.8808  -6.8640  -6.8640  -6.8638  -6.8638  -6.8636  -6.8636
    -4.7577  -4.7577  -4.6755  -4.6755  -4.6752  -4.6752  -4.4943  -4.4943
    -4.4936  -4.4936  -4.3932  -4.3932   1.0419   1.0419   1.3132   1.3132
     1.3141   1.3141   3.2936   3.2936   3.2951   3.2951   4.0629   4.0629
     5.9017   5.9017   6.3240   6.3240   6.3247   6.3247   6.3941   6.3941
     6.3944   6.3944   6.4126   6.4126   6.6459   6.6459   6.9152   6.9152
     6.9161   6.9161   6.9951   6.9951   7.0765   7.0765   7.1663   7.1663
     7.1668   7.1668   7.2969   7.2969   7.2983   7.2983

     occupation numbers
     1.0000   1.0000   1.0000   1.0000   1.0000   1.0000   1.0000   1.0000
     1.0000   1.0000   1.0000   1.0000   1.0000   1.0000   1.0000   1.0000
     1.0000   1.0000   1.0000   1.0000   1.0000   1.0000   1.0000   1.0000
     1.0000   1.0000   1.0000   1.0000   1.0000   1.0000   1.0000   1.0000
     1.0000   1.0000   1.0000   1.0000   1.0000   1.0000   1.0000   1.0000
     1.0000   1.0000   1.0000   1.0000   1.0000   1.0000   1.0000   1.0000
     1.0000   1.0000   1.0000   1.0000   1.0000   1.0000   1.0000   1.0000
     1.0000   1.0000   1.0000   1.0000   1.0000   1.0000   1.0000   1.0000
     1.0000   1.0000   1.0000   1.0000   1.0000   1.0000   1.0000   1.0000
     1.0000   1.0000   1.0000   1.0000   1.0000   1.0000   1.0000   1.0000
     1.0000   1.0000   1.0000   1.0000   1.0000   1.0000   1.0000   1.0000
     1.0000   1.0000   1.0000   1.0000   1.0000   1.0000   1.0000   1.0000
     1.0000   1.0000   1.0000   1.0000   1.0000   1.0000   1.0000   1.0000
     1.0000   1.0000   1.0000   1.0000   1.0000   1.0000   1.0000   1.0000
     1.0000   1.0000   1.0000   1.0000   1.0000   1.0000   1.0000   1.0000
     1.0000   1.0000   1.0000   1.0000   1.0000   1.0000   1.0000   1.0000
     1.0000   1.0000   1.0000   1.0000   1.0000   1.0000   1.0000   1.0000
     1.0000   1.0000   1.0000   1.0000   1.0000   1.0000   1.0000   1.0000
     1.0000   1.0000   1.0000   1.0000   1.0000   1.0000   1.0000   1.0000
     1.0000   1.0000   1.0000   1.0000   1.0000   1.0000   1.0000   1.0000
     1.0000   1.0000   1.0000   1.0000   1.0000   1.0000   1.0000   1.0000
     1.0000   1.0000   1.0000   1.0000   1.0000   1.0000

[...]

          k = 0.0000-0.5389 0.0622 ( 79289 PWs)   bands (ev):

[...]

          k =-0.0667-0.1925 0.0311 ( 79184 PWs)   bands (ev):

[...]

          k =-0.2667-0.5389 0.0622 ( 79319 PWs)   bands (ev):

   -29.7805 -29.7801 -29.7800 -29.7800 -29.7797 -29.7796 -29.7782 -29.7779
   -29.7777 -29.7775 -29.7774 -29.7771 -29.7307 -29.7307 -29.7303 -29.7303
   -29.7303 -29.7303 -29.7297 -29.7296 -29.7293 -29.7292 -29.7290 -29.7289
   -28.3287 -28.3282 -28.3282 -28.3282 -28.3277 -28.3277 -28.3262 -28.3257
   -28.3257 -28.3254 -28.3252 -28.3250 -28.2869 -28.2866 -28.2864 -28.2864
   -28.2861 -28.2861 -28.2854 -28.2851 -28.2850 -28.2847 -28.2847 -28.2844
   -28.2637 -28.2636 -28.2633 -28.2632 -28.2632 -28.2632 -28.2627 -28.2626
   -28.2622 -28.2622 -28.2620 -28.2619  -7.4665  -7.4663  -7.4661  -7.4545
    -7.4543  -7.4540  -7.4504  -7.4501  -7.4499  -7.4459  -7.4457  -7.4454
    -7.4342  -7.4340  -7.4338  -7.4098  -7.4096  -7.4094  -7.4086  -7.4084
    -7.4081  -7.4035  -7.4033  -7.4030  -7.0424  -7.0421  -7.0419  -7.0218
    -7.0215  -7.0213  -7.0194  -7.0192  -7.0190  -6.9993  -6.9991  -6.9988
    -6.9895  -6.9893  -6.9890  -6.9575  -6.9573  -6.9571  -6.9413  -6.9411
    -6.9409  -6.9328  -6.9326  -6.9324  -6.9110  -6.9108  -6.9105  -6.8958
    -6.8956  -6.8954  -6.8460  -6.8458  -6.8456  -6.8429  -6.8428  -6.8426
    -3.1680  -3.1671  -3.1529  -3.1518  -3.1358  -3.1346  -3.0905  -3.0887
    -3.0730  -3.0711  -3.0572  -3.0551   0.4275   0.4378   0.4383   0.5199
     0.5294   0.5305   1.4409   1.4471   1.4544   1.6117   1.6222   1.6259
     3.4172   3.4195   3.4456   3.6940   3.6989   3.7110   3.7487   3.7808
     3.7888   4.0741   4.1172   4.1254   4.6227   4.6688   4.7196   4.7827
     4.8781   4.9732   5.2936   5.3875   5.3939   5.4043   5.5207   5.5315
     5.5829   5.6554   5.7097   5.7863   5.8716   5.9486

     occupation numbers
     1.0000   1.0000   1.0000   1.0000   1.0000   1.0000   1.0000   1.0000
     1.0000   1.0000   1.0000   1.0000   1.0000   1.0000   1.0000   1.0000
     1.0000   1.0000   1.0000   1.0000   1.0000   1.0000   1.0000   1.0000
     1.0000   1.0000   1.0000   1.0000   1.0000   1.0000   1.0000   1.0000
     1.0000   1.0000   1.0000   1.0000   1.0000   1.0000   1.0000   1.0000
     1.0000   1.0000   1.0000   1.0000   1.0000   1.0000   1.0000   1.0000
     1.0000   1.0000   1.0000   1.0000   1.0000   1.0000   1.0000   1.0000
     1.0000   1.0000   1.0000   1.0000   1.0000   1.0000   1.0000   1.0000
     1.0000   1.0000   1.0000   1.0000   1.0000   1.0000   1.0000   1.0000
     1.0000   1.0000   1.0000   1.0000   1.0000   1.0000   1.0000   1.0000
     1.0000   1.0000   1.0000   1.0000   1.0000   1.0000   1.0000   1.0000
     1.0000   1.0000   1.0000   1.0000   1.0000   1.0000   1.0000   1.0000
     1.0000   1.0000   1.0000   1.0000   1.0000   1.0000   1.0000   1.0000
     1.0000   1.0000   1.0000   1.0000   1.0000   1.0000   1.0000   1.0000
     1.0000   1.0000   1.0000   1.0000   1.0000   1.0000   1.0000   1.0000
     1.0000   1.0000   1.0000   1.0000   1.0000   1.0000   1.0000   1.0000
     1.0000   1.0000   1.0000   1.0000   1.0000   1.0000   1.0000   1.0000
     1.0000   1.0000   1.0000   1.0000   1.0000   1.0000   1.0000   1.0000
     1.0000   1.0000   1.0000   1.0000   1.0000   1.0000   1.0000   1.0000
     1.0000   1.0000   1.0000   1.0000   1.0000   1.0000   1.0000   1.0000
     1.0000   1.0000   1.0000   1.0000   1.0000   1.0000   1.0000   1.0000
     1.0000   1.0000   1.0000   1.0000   1.0000   1.0000

     highest occupied level (ev):     7.7400

!    total energy              =   -1833.18181020 Ry
     Harris-Foulkes estimate   =   -1833.18181020 Ry
     estimated scf accuracy    <          9.3E-11 Ry

     The total energy is the sum of the following terms:

     one-electron contribution =   -1114.54405085 Ry
     hartree contribution      =     623.56560275 Ry
     xc contribution           =    -215.54917110 Ry
     ewald contribution        =   -1126.65419100 Ry

     convergence has been achieved in  14 iterations

     Writing output data file GaTegamma.save

     General routines

     Parallel routines

   This run was terminated on:   2: 6: 6   7Apr2022

   JOB DONE.