     Program PWSCF v.6.1 (svn rev. 13369) starts on  6Apr2022 at 19:45:25

     Current dimensions of program PWSCF are:
     Max number of different atomic species (ntypx) = 10
     Max number of k-points (npk) =  40000
     Max angular momentum in pseudopotentials (lmaxx) =  3

     IMPORTANT: XC functional enforced from input :
     Exchange-correlation      = SLA+PW+PSX+PSC ( 1  4 10  8 0 0)
     Any further DFT definition will be discarded
     Please, verify this is what you really want

     Found symmetry operation: I + ( -0.3333  0.3333  0.3333)
     This is a supercell, fractional translations are disabled

     bravais-lattice index     =            0
     lattice parameter (alat)  =       7.6027  a.u.
     unit-cell volume          =    2403.4339 (a.u.)^3
     number of atoms/cell      =           12
     number of atomic types    =            2
     number of electrons       =       114.00
     number of Kohn-Sham states=          114
     kinetic-energy cutoff     =     150.0000  Ry
     charge density cutoff     =     600.0000  Ry
     convergence threshold     =      7.0E-10
     mixing beta               =       0.7000
     number of iterations used =            8  plain     mixing
     Exchange-correlation      = SLA+PW+PSX+PSC ( 1  4 10  8 0 0)
     Non magnetic calculation with spin-orbit

     celldm(1)=   7.602730  celldm(2)=   0.000000  celldm(3)=   0.000000
     celldm(4)=   0.000000  celldm(5)=   0.000000  celldm(6)=   0.000000

     crystal axes: (cart. coord. in units of alat)
               a(1) = (   1.000000   0.000000   0.000000 )
               a(2) = (  -0.500000   0.866025   0.000000 )
               a(3) = (   0.000000   0.000000   6.315283 )

     reciprocal axes: (cart. coord. in units 2 pi/alat)
               b(1) = (  1.000000  0.577350 -0.000000 )
               b(2) = (  0.000000  1.154701 -0.000000 )
               b(3) = (  0.000000  0.000000  0.158346 )

     PseudoPot. # 1 for In read from file:
     /home/mclaro/pseudo/ONCVPSP/sg15/In_ONCV_PBE_fr.upf
     MD5 check sum: eedf9510f5d1e34334b25b4623707d2f
     Pseudo is Norm-conserving, Zval = 13.0
     Generated using ONCVPSP code by D. R. Hamann
     Using radial grid of 1986 points, 10 beta functions with:
                l(1) =   0
                l(2) =   0
                l(3) =   1
                l(4) =   1
                l(5) =   1
                l(6) =   1
                l(7) =   2
                l(8) =   2
                l(9) =   2
               l(10) =   2

     PseudoPot. # 2 for Se read from file:
     /home/mclaro/pseudo/ONCVPSP/sg15/Se_ONCV_PBE_fr.upf
     MD5 check sum: cfe1483cd39788255e734f67871220b5
     Pseudo is Norm-conserving, Zval =  6.0
     Generated using ONCVPSP code by D. R. Hamann
     Using radial grid of 1214 points, 10 beta functions with:
                l(1) =   0
                l(2) =   0
                l(3) =   1
                l(4) =   1
                l(5) =   1
                l(6) =   1
                l(7) =   2
                l(8) =   2
                l(9) =   2
               l(10) =   2

     atomic species   valence    mass     pseudopotential
        In            13.00   114.81800     In( 1.00)
        Se             6.00    78.96000     Se( 1.00)

      6 Sym. Ops. (no inversion) found

                                    s                        frac. trans.

      isym =  1     identity

 cryst.   s( 1) = (     1          0          0      )
                  (     0          1          0      )
                  (     0          0          1      )

 cart.    s( 1) = (  1.0000000  0.0000000 -0.0000000 )
                  (  0.0000000  1.0000000  0.0000000 )
                  (  0.0000000  0.0000000  1.0000000 )

      isym =  2     120 deg rotation - cryst. axis [0,0,1]

[...]

      isym =  3     120 deg rotation - cryst. axis [0,0,-1]

[...]

      isym =  4     inv. 180 deg rotation - cart. axis [1,0,0]

[...]

      isym =  5     inv. 180 deg rotation - cryst. axis [0,1,0]

[...]

      isym =  6     inv. 180 deg rotation - cryst. axis [1,1,0]

 cryst.   s( 6) = (     0         -1          0      )
                  (    -1          0          0      )
                  (     0          0          1      )

 cart.    s( 6) = (  0.5000000 -0.8660254  0.0000000 )
                  ( -0.8660254 -0.5000000  0.0000000 )
                  (  0.0000000  0.0000000  1.0000000 )

   Cartesian axes

     site n.     atom                  positions (alat units)
         1           Se  tau(   1) = (   0.0000000   0.0000000   1.4353724  )
         2           Se  tau(   2) = (  -0.0000000   0.5773503   0.6676935  )
         3           Se  tau(   3) = (   0.5000000   0.2886751   3.5404837  )
         4           Se  tau(   4) = (   0.0000000   0.0000000   2.7727680  )
         5           Se  tau(   5) = (  -0.0000000   0.5773503   5.6455875  )
         6           Se  tau(   6) = (   0.5000000   0.2886751   4.8778471  )
         7           In  tau(   7) = (   0.5000000   0.2886751   1.7564068  )
         8           In  tau(   8) = (   0.0000000   0.0000000   0.3465144  )
         9           In  tau(   9) = (  -0.0000000   0.5773503   3.8615117  )
        10           In  tau(  10) = (   0.5000000   0.2886751   2.4515872  )
        11           In  tau(  11) = (   0.0000000   0.0000000   5.9666206  )
        12           In  tau(  12) = (  -0.0000000   0.5773503   4.5566755  )

   Crystallographic axes

     site n.     atom                  positions (cryst. coord.)
         1           Se  tau(   1) = ( -0.0000000  0.0000000  0.2272855  )
         2           Se  tau(   2) = (  0.3333333  0.6666667  0.1057266  )
         3           Se  tau(   3) = (  0.6666667  0.3333333  0.5606215  )
         4           Se  tau(   4) = ( -0.0000000  0.0000000  0.4390568  )
         5           Se  tau(   5) = (  0.3333333  0.6666667  0.8939564  )
         6           Se  tau(   6) = (  0.6666667  0.3333333  0.7723877  )
         7           In  tau(   7) = (  0.6666667  0.3333333  0.2781200  )
         8           In  tau(   8) = ( -0.0000000  0.0000000  0.0548692  )
         9           In  tau(   9) = (  0.3333333  0.6666667  0.6114550  )
        10           In  tau(  10) = (  0.6666667  0.3333333  0.3881991  )
        11           In  tau(  11) = ( -0.0000000  0.0000000  0.9447907  )
        12           In  tau(  12) = (  0.3333333  0.6666667  0.7215315  )

     number of k points=   119
                       cart. coord. in units 2pi/alat
        k(    1) = (   0.0000000   0.0000000   0.0000000), wk =   0.0008889
        k(    2) = (   0.0000000   0.0000000   0.0316692), wk =   0.0017778
        k(    3) = (   0.0000000   0.0000000   0.0633384), wk =   0.0017778
        k(    4) = (   0.0000000   0.0769800  -0.0000000), wk =   0.0053333
        k(    5) = (   0.0000000   0.0769800   0.0316692), wk =   0.0053333
        k(    6) = (   0.0000000   0.0769800   0.0633384), wk =   0.0053333
        k(    7) = (   0.0000000   0.1539601  -0.0000000), wk =   0.0053333
        k(    8) = (   0.0000000   0.1539601   0.0316692), wk =   0.0053333
        k(    9) = (   0.0000000   0.1539601   0.0633384), wk =   0.0053333
        k(   10) = (   0.0000000   0.2309401  -0.0000000), wk =   0.0053333
        k(   11) = (   0.0000000   0.2309401   0.0316692), wk =   0.0053333
        k(   12) = (   0.0000000   0.2309401   0.0633384), wk =   0.0053333
        k(   13) = (   0.0000000   0.3079201  -0.0000000), wk =   0.0053333
        k(   14) = (   0.0000000   0.3079201   0.0316692), wk =   0.0053333
        k(   15) = (   0.0000000   0.3079201   0.0633384), wk =   0.0053333
        k(   16) = (   0.0000000   0.3849002  -0.0000000), wk =   0.0053333
        k(   17) = (   0.0000000   0.3849002   0.0316692), wk =   0.0053333
        k(   18) = (   0.0000000   0.3849002   0.0633384), wk =   0.0053333
        k(   19) = (   0.0000000   0.4618802  -0.0000000), wk =   0.0053333
        k(   20) = (   0.0000000   0.4618802   0.0316692), wk =   0.0053333
        k(   21) = (   0.0000000   0.4618802   0.0633384), wk =   0.0053333
        k(   22) = (   0.0000000   0.5388603  -0.0000000), wk =   0.0053333
        k(   23) = (   0.0000000   0.5388603   0.0316692), wk =   0.0053333
        k(   24) = (   0.0000000   0.5388603   0.0633384), wk =   0.0053333
        k(   25) = (   0.0666667   0.1154701  -0.0000000), wk =   0.0053333
        k(   26) = (   0.0666667   0.1154701   0.0316692), wk =   0.0106667
        k(   27) = (   0.0666667   0.1154701   0.0633384), wk =   0.0106667
        k(   28) = (   0.0666667   0.1924501  -0.0000000), wk =   0.0106667
        k(   29) = (   0.0666667   0.1924501   0.0316692), wk =   0.0106667
        k(   30) = (   0.0666667   0.1924501   0.0633384), wk =   0.0106667
        k(   31) = (   0.0666667   0.2694301  -0.0000000), wk =   0.0106667
        k(   32) = (   0.0666667   0.2694301   0.0316692), wk =   0.0106667
        k(   33) = (   0.0666667   0.2694301   0.0633384), wk =   0.0106667
        k(   34) = (   0.0666667   0.3464102  -0.0000000), wk =   0.0106667
        k(   35) = (   0.0666667   0.3464102   0.0316692), wk =   0.0106667
        k(   36) = (   0.0666667   0.3464102   0.0633384), wk =   0.0106667
        k(   37) = (   0.0666667   0.4233902  -0.0000000), wk =   0.0106667
        k(   38) = (   0.0666667   0.4233902   0.0316692), wk =   0.0106667
        k(   39) = (   0.0666667   0.4233902   0.0633384), wk =   0.0106667
        k(   40) = (   0.0666667   0.5003702  -0.0000000), wk =   0.0106667
        k(   41) = (   0.0666667   0.5003702   0.0316692), wk =   0.0106667
        k(   42) = (   0.0666667   0.5003702   0.0633384), wk =   0.0106667
        k(   43) = (   0.0666667   0.5773503  -0.0000000), wk =   0.0053333
        k(   44) = (   0.0666667   0.5773503   0.0316692), wk =   0.0106667
        k(   45) = (   0.0666667   0.5773503   0.0633384), wk =   0.0106667
        k(   46) = (   0.1333333   0.2309401  -0.0000000), wk =   0.0053333
        k(   47) = (   0.1333333   0.2309401   0.0316692), wk =   0.0106667
        k(   48) = (   0.1333333   0.2309401   0.0633384), wk =   0.0106667
        k(   49) = (   0.1333333   0.3079201  -0.0000000), wk =   0.0106667
        k(   50) = (   0.1333333   0.3079201   0.0316692), wk =   0.0106667
        k(   51) = (   0.1333333   0.3079201   0.0633384), wk =   0.0106667
        k(   52) = (   0.1333333   0.3849002  -0.0000000), wk =   0.0106667
        k(   53) = (   0.1333333   0.3849002   0.0316692), wk =   0.0106667
        k(   54) = (   0.1333333   0.3849002   0.0633384), wk =   0.0106667
        k(   55) = (   0.1333333   0.4618802  -0.0000000), wk =   0.0106667
        k(   56) = (   0.1333333   0.4618802   0.0316692), wk =   0.0106667
        k(   57) = (   0.1333333   0.4618802   0.0633384), wk =   0.0106667
        k(   58) = (   0.1333333   0.5388603  -0.0000000), wk =   0.0106667
        k(   59) = (   0.1333333   0.5388603   0.0316692), wk =   0.0106667
        k(   60) = (   0.1333333   0.5388603   0.0633384), wk =   0.0106667
[...]
        k(  105) = (  -0.0666667  -0.5003702   0.0633384), wk =   0.0106667
        k(  106) = (  -0.1333333  -0.3079201   0.0316692), wk =   0.0106667
        k(  107) = (  -0.1333333  -0.3079201   0.0633384), wk =   0.0106667
        k(  108) = (  -0.1333333  -0.3849002   0.0316692), wk =   0.0106667
        k(  109) = (  -0.1333333  -0.3849002   0.0633384), wk =   0.0106667
        k(  110) = (  -0.1333333  -0.4618802   0.0316692), wk =   0.0106667
        k(  111) = (  -0.1333333  -0.4618802   0.0633384), wk =   0.0106667
        k(  112) = (  -0.1333333  -0.5388603   0.0316692), wk =   0.0106667
        k(  113) = (  -0.1333333  -0.5388603   0.0633384), wk =   0.0106667
        k(  114) = (  -0.2000000  -0.4233902   0.0316692), wk =   0.0106667
        k(  115) = (  -0.2000000  -0.4233902   0.0633384), wk =   0.0106667
        k(  116) = (  -0.2000000  -0.5003702   0.0316692), wk =   0.0106667
        k(  117) = (  -0.2000000  -0.5003702   0.0633384), wk =   0.0106667
        k(  118) = (  -0.2666667  -0.5388603   0.0316692), wk =   0.0106667
        k(  119) = (  -0.2666667  -0.5388603   0.0633384), wk =   0.0106667

                       cryst. coord.
        k(    1) = (   0.0000000   0.0000000   0.0000000), wk =   0.0008889
        k(    2) = (   0.0000000   0.0000000   0.2000000), wk =   0.0017778
        k(    3) = (   0.0000000   0.0000000   0.4000000), wk =   0.0017778
        k(    4) = (   0.0000000   0.0666667   0.0000000), wk =   0.0053333
        k(    5) = (   0.0000000   0.0666667   0.2000000), wk =   0.0053333
        k(    6) = (   0.0000000   0.0666667   0.4000000), wk =   0.0053333
        k(    7) = (   0.0000000   0.1333333   0.0000000), wk =   0.0053333
        k(    8) = (   0.0000000   0.1333333   0.2000000), wk =   0.0053333
        k(    9) = (   0.0000000   0.1333333   0.4000000), wk =   0.0053333
        k(   10) = (   0.0000000   0.2000000   0.0000000), wk =   0.0053333
        k(   11) = (   0.0000000   0.2000000   0.2000000), wk =   0.0053333
        k(   12) = (   0.0000000   0.2000000   0.4000000), wk =   0.0053333
        k(   13) = (   0.0000000   0.2666667   0.0000000), wk =   0.0053333
        k(   14) = (   0.0000000   0.2666667   0.2000000), wk =   0.0053333
        k(   15) = (   0.0000000   0.2666667   0.4000000), wk =   0.0053333
        k(   16) = (   0.0000000   0.3333333   0.0000000), wk =   0.0053333
        k(   17) = (   0.0000000   0.3333333   0.2000000), wk =   0.0053333
        k(   18) = (   0.0000000   0.3333333   0.4000000), wk =   0.0053333
        k(   19) = (   0.0000000   0.4000000   0.0000000), wk =   0.0053333
        k(   20) = (   0.0000000   0.4000000   0.2000000), wk =   0.0053333
        k(   21) = (   0.0000000   0.4000000   0.4000000), wk =   0.0053333
        k(   22) = (   0.0000000   0.4666667   0.0000000), wk =   0.0053333
        k(   23) = (   0.0000000   0.4666667   0.2000000), wk =   0.0053333
        k(   24) = (   0.0000000   0.4666667   0.4000000), wk =   0.0053333
        k(   25) = (   0.0666667   0.0666667   0.0000000), wk =   0.0053333
        k(   26) = (   0.0666667   0.0666667   0.2000000), wk =   0.0106667
        k(   27) = (   0.0666667   0.0666667   0.4000000), wk =   0.0106667
        k(   28) = (   0.0666667   0.1333333   0.0000000), wk =   0.0106667
        k(   29) = (   0.0666667   0.1333333   0.2000000), wk =   0.0106667
        k(   30) = (   0.0666667   0.1333333   0.4000000), wk =   0.0106667
        k(   31) = (   0.0666667   0.2000000   0.0000000), wk =   0.0106667
        k(   32) = (   0.0666667   0.2000000   0.2000000), wk =   0.0106667
        k(   33) = (   0.0666667   0.2000000   0.4000000), wk =   0.0106667
        k(   34) = (   0.0666667   0.2666667   0.0000000), wk =   0.0106667
        k(   35) = (   0.0666667   0.2666667   0.2000000), wk =   0.0106667
        k(   36) = (   0.0666667   0.2666667   0.4000000), wk =   0.0106667
        k(   37) = (   0.0666667   0.3333333   0.0000000), wk =   0.0106667
        k(   38) = (   0.0666667   0.3333333   0.2000000), wk =   0.0106667
        k(   39) = (   0.0666667   0.3333333   0.4000000), wk =   0.0106667
        k(   40) = (   0.0666667   0.4000000   0.0000000), wk =   0.0106667
        k(   41) = (   0.0666667   0.4000000   0.2000000), wk =   0.0106667
        k(   42) = (   0.0666667   0.4000000   0.4000000), wk =   0.0106667
        k(   43) = (   0.0666667   0.4666667   0.0000000), wk =   0.0053333
        k(   44) = (   0.0666667   0.4666667   0.2000000), wk =   0.0106667
        k(   45) = (   0.0666667   0.4666667   0.4000000), wk =   0.0106667
        k(   46) = (   0.1333333   0.1333333   0.0000000), wk =   0.0053333
        k(   47) = (   0.1333333   0.1333333   0.2000000), wk =   0.0106667
        k(   48) = (   0.1333333   0.1333333   0.4000000), wk =   0.0106667
        k(   49) = (   0.1333333   0.2000000   0.0000000), wk =   0.0106667
        k(   50) = (   0.1333333   0.2000000   0.2000000), wk =   0.0106667
        k(   51) = (   0.1333333   0.2000000   0.4000000), wk =   0.0106667
        k(   52) = (   0.1333333   0.2666667   0.0000000), wk =   0.0106667
        k(   53) = (   0.1333333   0.2666667   0.2000000), wk =   0.0106667
        k(   54) = (   0.1333333   0.2666667   0.4000000), wk =   0.0106667
        k(   55) = (   0.1333333   0.3333333   0.0000000), wk =   0.0106667
        k(   56) = (   0.1333333   0.3333333   0.2000000), wk =   0.0106667
        k(   57) = (   0.1333333   0.3333333   0.4000000), wk =   0.0106667
        k(   58) = (   0.1333333   0.4000000   0.0000000), wk =   0.0106667
        k(   59) = (   0.1333333   0.4000000   0.2000000), wk =   0.0106667
        k(   60) = (   0.1333333   0.4000000   0.4000000), wk =   0.0106667
[...]
        k(  105) = (  -0.0666667  -0.4000000   0.4000000), wk =   0.0106667
        k(  106) = (  -0.1333333  -0.2000000   0.2000000), wk =   0.0106667
        k(  107) = (  -0.1333333  -0.2000000   0.4000000), wk =   0.0106667
        k(  108) = (  -0.1333333  -0.2666667   0.2000000), wk =   0.0106667
        k(  109) = (  -0.1333333  -0.2666667   0.4000000), wk =   0.0106667
        k(  110) = (  -0.1333333  -0.3333333   0.2000000), wk =   0.0106667
        k(  111) = (  -0.1333333  -0.3333333   0.4000000), wk =   0.0106667
        k(  112) = (  -0.1333333  -0.4000000   0.2000000), wk =   0.0106667
        k(  113) = (  -0.1333333  -0.4000000   0.4000000), wk =   0.0106667
        k(  114) = (  -0.2000000  -0.2666667   0.2000000), wk =   0.0106667
        k(  115) = (  -0.2000000  -0.2666667   0.4000000), wk =   0.0106667
        k(  116) = (  -0.2000000  -0.3333333   0.2000000), wk =   0.0106667
        k(  117) = (  -0.2000000  -0.3333333   0.4000000), wk =   0.0106667
        k(  118) = (  -0.2666667  -0.3333333   0.2000000), wk =   0.0106667
        k(  119) = (  -0.2666667  -0.3333333   0.4000000), wk =   0.0106667

     Initial potential from superposition of free atoms

     starting charge  113.97591, renormalised to  114.00000
     Starting wfc are  156 randomized atomic wfcs

     Self-consistent Calculation

     iteration #  1     ecut=   150.00 Ry     beta=0.70
     Davidson diagonalization with overlap
     ethr =  1.00E-02,  avg # of iterations =  1.9

     Threshold (ethr) on eigenvalues was too large:
     Diagonalizing with lowered threshold

     Davidson diagonalization with overlap
     ethr =  3.67E-04,  avg # of iterations =  2.6

     total energy              =    -739.57124902 Ry
     Harris-Foulkes estimate   =    -739.80992889 Ry
     estimated scf accuracy    <       0.35818736 Ry

[...]

     total energy              =    -739.71578071 Ry
     Harris-Foulkes estimate   =    -739.71578071 Ry
     estimated scf accuracy    <          3.0E-09 Ry

     iteration # 14     ecut=   150.00 Ry     beta=0.70
     Davidson diagonalization with overlap
     ethr =  2.59E-12,  avg # of iterations =  3.2

     End of self-consistent calculation

          k = 0.0000 0.0000 0.0000 ( 74593 PWs)   bands (ev):

    -8.3319  -8.3319  -8.3319  -8.3319  -8.3318  -8.3318  -8.2590  -8.2590
    -8.2590  -8.2590  -8.2590  -8.2590  -8.2426  -8.2426  -8.2426  -8.2426
    -8.2425  -8.2425  -8.2310  -8.2310  -8.2310  -8.2310  -8.2308  -8.2308
    -7.4907  -7.4907  -7.4897  -7.4897  -7.4897  -7.4897  -7.4578  -7.4578
    -7.4578  -7.4578  -7.4577  -7.4577  -7.4347  -7.4347  -7.4347  -7.4347
    -7.4340  -7.4340  -7.3762  -7.3762  -7.3760  -7.3760  -7.3759  -7.3759
    -7.3378  -7.3378  -7.3377  -7.3377  -7.3261  -7.3261  -7.2734  -7.2734
    -7.2733  -7.2733  -7.2733  -7.2733  -6.8454  -6.8454  -6.7506  -6.7506
    -6.7506  -6.7506  -6.5322  -6.5322  -6.5321  -6.5321  -6.4367  -6.4367
     0.2589   0.2589   0.4915   0.4915   0.4916   0.4916   2.4703   2.4703
     2.4704   2.4704   3.1388   3.1388   4.9338   4.9338   5.1362   5.1362
     5.1362   5.1362   5.2868   5.2868   5.3057   5.3057   5.3130   5.3130
     5.3130   5.3130   5.4278   5.4278   5.4294   5.4294   5.4864   5.4864
     5.5825   5.5825   5.6447   5.6447   5.6465   5.6465   6.0353   6.0353
     6.0353   6.0353

     occupation numbers
     1.0000   1.0000   1.0000   1.0000   1.0000   1.0000   1.0000   1.0000
     1.0000   1.0000   1.0000   1.0000   1.0000   1.0000   1.0000   1.0000
     1.0000   1.0000   1.0000   1.0000   1.0000   1.0000   1.0000   1.0000
     1.0000   1.0000   1.0000   1.0000   1.0000   1.0000   1.0000   1.0000
     1.0000   1.0000   1.0000   1.0000   1.0000   1.0000   1.0000   1.0000
     1.0000   1.0000   1.0000   1.0000   1.0000   1.0000   1.0000   1.0000
     1.0000   1.0000   1.0000   1.0000   1.0000   1.0000   1.0000   1.0000
     1.0000   1.0000   1.0000   1.0000   1.0000   1.0000   1.0000   1.0000
     1.0000   1.0000   1.0000   1.0000   1.0000   1.0000   1.0000   1.0000
     1.0000   1.0000   1.0000   1.0000   1.0000   1.0000   1.0000   1.0000
     1.0000   1.0000   1.0000   1.0000   1.0000   1.0000   1.0000   1.0000
     1.0000   1.0000   1.0000   1.0000   1.0000   1.0000   1.0000   1.0000
     1.0000   1.0000   1.0000   1.0000   1.0000   1.0000   1.0000   1.0000
     1.0000   1.0000   1.0000   1.0000   1.0000   1.0000   1.0000   1.0000
     1.0000   1.0000

[...]

          k = 0.0000-0.5389 0.0633 ( 74614 PWs)   bands (ev):

[...]

          k =-0.0667-0.1925 0.0317 ( 74499 PWs)   bands (ev):

[...]

          k =-0.2667-0.5389 0.0633 ( 74606 PWs)   bands (ev):

    -8.4215  -8.4208  -8.4204  -8.4018  -8.4013  -8.4003  -8.3898  -8.3897
    -8.3895  -8.3814  -8.3804  -8.3799  -8.3067  -8.3065  -8.3064  -8.2369
    -8.2369  -8.2368  -8.2189  -8.2189  -8.2188  -8.2089  -8.2088  -8.2088
    -7.7447  -7.7437  -7.7420  -7.5895  -7.5893  -7.5892  -7.5857  -7.5850
    -7.5842  -7.5836  -7.5836  -7.5836  -7.4694  -7.4693  -7.4693  -7.3820
    -7.3818  -7.3816  -7.3709  -7.3708  -7.3708  -7.3617  -7.3616  -7.3616
    -7.3265  -7.3265  -7.3264  -7.3172  -7.3172  -7.3171  -7.2125  -7.2125
    -7.2124  -7.2026  -7.2026  -7.2025  -5.4364  -5.4194  -5.4113  -5.4014
    -5.3957  -5.3782  -5.3530  -5.3406  -5.3349  -5.3229  -5.3178  -5.3070
     0.3428   0.3530   0.3599   0.3987   0.4078   0.4159   1.0714   1.0893
     1.0921   1.1578   1.1758   1.1825   2.7090   2.7157   2.7512   2.7617
     2.7842   2.8380   2.9766   3.0587   3.0730   3.0871   3.1444   3.1565
     3.7071   3.7448   3.8276   3.8623   4.0209   4.0721   4.3460   4.3977
     4.4760   4.5275   4.5291   4.5585   4.7352   4.8107   4.8778   4.9425
     4.9770   5.0255

     occupation numbers
     1.0000   1.0000   1.0000   1.0000   1.0000   1.0000   1.0000   1.0000
     1.0000   1.0000   1.0000   1.0000   1.0000   1.0000   1.0000   1.0000
     1.0000   1.0000   1.0000   1.0000   1.0000   1.0000   1.0000   1.0000
     1.0000   1.0000   1.0000   1.0000   1.0000   1.0000   1.0000   1.0000
     1.0000   1.0000   1.0000   1.0000   1.0000   1.0000   1.0000   1.0000
     1.0000   1.0000   1.0000   1.0000   1.0000   1.0000   1.0000   1.0000
     1.0000   1.0000   1.0000   1.0000   1.0000   1.0000   1.0000   1.0000
     1.0000   1.0000   1.0000   1.0000   1.0000   1.0000   1.0000   1.0000
     1.0000   1.0000   1.0000   1.0000   1.0000   1.0000   1.0000   1.0000
     1.0000   1.0000   1.0000   1.0000   1.0000   1.0000   1.0000   1.0000
     1.0000   1.0000   1.0000   1.0000   1.0000   1.0000   1.0000   1.0000
     1.0000   1.0000   1.0000   1.0000   1.0000   1.0000   1.0000   1.0000
     1.0000   1.0000   1.0000   1.0000   1.0000   1.0000   1.0000   1.0000
     1.0000   1.0000   1.0000   1.0000   1.0000   1.0000   1.0000   1.0000
     1.0000   1.0000

     highest occupied level (ev):     6.5504

!    total energy              =    -739.71578071 Ry
     Harris-Foulkes estimate   =    -739.71578071 Ry
     estimated scf accuracy    <          3.3E-10 Ry

     The total energy is the sum of the following terms:

     one-electron contribution =    -334.84477514 Ry
     hartree contribution      =     222.78470630 Ry
     xc contribution           =    -107.00266827 Ry
     ewald contribution        =    -520.65304360 Ry

     convergence has been achieved in  14 iterations

     Writing output data file InSegamma.save

     General routines

     Parallel routines

   This run was terminated on:  20:55:47   6Apr2022

   JOB DONE.