     Program PWSCF v.6.1 (svn rev. 13369) starts on  6Apr2022 at 20:55:49

     Current dimensions of program PWSCF are:
     Max number of different atomic species (ntypx) = 10
     Max number of k-points (npk) =  40000
     Max angular momentum in pseudopotentials (lmaxx) =  3

     IMPORTANT: XC functional enforced from input :
     Exchange-correlation      = SLA+PW+PSX+PSC ( 1  4 10  8 0 0)
     Any further DFT definition will be discarded
     Please, verify this is what you really want

     bravais-lattice index     =            0
     lattice parameter (alat)  =       8.1435  a.u.
     unit-cell volume          =    3066.7167 (a.u.)^3
     number of atoms/cell      =           12
     number of atomic types    =            2
     number of electrons       =       174.00
     number of Kohn-Sham states=          174
     kinetic-energy cutoff     =     150.0000  Ry
     charge density cutoff     =     600.0000  Ry
     convergence threshold     =      7.0E-10
     mixing beta               =       0.7000
     number of iterations used =            8  plain     mixing
     Exchange-correlation      = SLA+PW+PSX+PSC ( 1  4 10  8 0 0)
     Non magnetic calculation with spin-orbit

     celldm(1)=   8.143498  celldm(2)=   0.000000  celldm(3)=   0.000000
     celldm(4)=   0.000000  celldm(5)=   0.000000  celldm(6)=   0.000000

     crystal axes: (cart. coord. in units of alat)
               a(1) = (   1.000000   0.000000   0.000000 )
               a(2) = (  -0.500000   0.866025   0.000000 )
               a(3) = (   0.000000   0.000000   6.557072 )

     reciprocal axes: (cart. coord. in units 2 pi/alat)
               b(1) = (  1.000000  0.577350 -0.000000 )
               b(2) = (  0.000000  1.154701 -0.000000 )
               b(3) = (  0.000000  0.000000  0.152507 )

     PseudoPot. # 1 for In read from file:
     /home/mclaro/pseudo/ONCVPSP/sg15/In_ONCV_PBE_fr.upf
     MD5 check sum: eedf9510f5d1e34334b25b4623707d2f
     Pseudo is Norm-conserving, Zval = 13.0
     Generated using ONCVPSP code by D. R. Hamann
     Using radial grid of 1986 points, 10 beta functions with:
                l(1) =   0
                l(2) =   0
                l(3) =   1
                l(4) =   1
                l(5) =   1
                l(6) =   1
                l(7) =   2
                l(8) =   2
                l(9) =   2
               l(10) =   2

     PseudoPot. # 2 for Te read from file:
     /home/mclaro/pseudo/ONCVPSP/sg15/Te_ONCV_PBE_fr.upf
     MD5 check sum: fbe956063e00beff679dd20f3414d505
     Pseudo is Norm-conserving, Zval = 16.0
     Generated using ONCVPSP code by D. R. Hamann
     Using radial grid of 1324 points, 10 beta functions with:
                l(1) =   0
                l(2) =   0
                l(3) =   1
                l(4) =   1
                l(5) =   1
                l(6) =   1
                l(7) =   2
                l(8) =   2
                l(9) =   2
               l(10) =   2

     atomic species   valence    mass     pseudopotential
        In            13.00   114.81800     In( 1.00)
        Te            16.00   127.60000     Te( 1.00)

      6 Sym. Ops. (no inversion) found

                                    s                        frac. trans.

      isym =  1     identity

 cryst.   s( 1) = (     1          0          0      )
                  (     0          1          0      )
                  (     0          0          1      )

 cart.    s( 1) = (  1.0000000  0.0000000 -0.0000000 )
                  (  0.0000000  1.0000000 -0.0000000 )
                  (  0.0000000  0.0000000  1.0000000 )

      isym =  2     120 deg rotation - cryst. axis [0,0,1]

[...]

      isym =  3     120 deg rotation - cryst. axis [0,0,-1]

[...]

      isym =  4     inv. 180 deg rotation - cart. axis [1,0,0]

[...]

      isym =  5     inv. 180 deg rotation - cryst. axis [0,1,0]

[...]

      isym =  6     inv. 180 deg rotation - cryst. axis [1,1,0]

 cryst.   s( 6) = (     0         -1          0      )
                  (    -1          0          0      )
                  (     0          0          1      )

 cart.    s( 6) = (  0.5000000 -0.8660254  0.0000000 )
                  ( -0.8660254 -0.5000000  0.0000000 )
                  (  0.0000000  0.0000000  1.0000000 )

   Cartesian axes

     site n.     atom                  positions (alat units)
         1           Te  tau(   1) = (   0.0000000   0.0000000   1.4925396  )
         2           Te  tau(   2) = (  -0.0000000   0.5773503   0.6917672  )
         3           Te  tau(   3) = (   0.5000000   0.2886751   3.6782556  )
         4           Te  tau(   4) = (   0.0000000   0.0000000   2.8773701  )
         5           Te  tau(   5) = (  -0.0000000   0.5773503   5.8639701  )
         6           Te  tau(   6) = (   0.5000000   0.2886751   5.0631297  )
         7           In  tau(   7) = (   0.5000000   0.2886751   1.8370374  )
         8           In  tau(   8) = (   0.0000000   0.0000000   0.3456795  )
         9           In  tau(   9) = (  -0.0000000   0.5773503   4.0227610  )
        10           In  tau(  10) = (   0.5000000   0.2886751   2.5312973  )
        11           In  tau(  11) = (   0.0000000   0.0000000   6.2084730  )
        12           In  tau(  12) = (  -0.0000000   0.5773503   4.7170387  )

   Crystallographic axes

     site n.     atom                  positions (cryst. coord.)
         1           Te  tau(   1) = ( -0.0000000  0.0000000  0.2276229  )
         2           Te  tau(   2) = (  0.3333333  0.6666667  0.1054994  )
         3           Te  tau(   3) = (  0.6666667  0.3333333  0.5609601  )
         4           Te  tau(   4) = (  0.0000000  0.0000000  0.4388193  )
         5           Te  tau(   5) = (  0.3333333  0.6666667  0.8942970  )
         6           Te  tau(   6) = (  0.6666667  0.3333333  0.7721632  )
         7           In  tau(   7) = (  0.6666667  0.3333333  0.2801612  )
         8           In  tau(   8) = (  0.0000000  0.0000000  0.0527186  )
         9           In  tau(   9) = (  0.3333333  0.6666667  0.6134996  )
        10           In  tau(  10) = (  0.6666667  0.3333333  0.3860408  )
        11           In  tau(  11) = ( -0.0000000  0.0000000  0.9468361  )
        12           In  tau(  12) = (  0.3333333  0.6666667  0.7193818  )

     number of k points=   119
                       cart. coord. in units 2pi/alat
        k(    1) = (   0.0000000   0.0000000   0.0000000), wk =   0.0008889
        k(    2) = (   0.0000000   0.0000000   0.0305014), wk =   0.0017778
        k(    3) = (   0.0000000   0.0000000   0.0610028), wk =   0.0017778
        k(    4) = (   0.0000000   0.0769800  -0.0000000), wk =   0.0053333
        k(    5) = (   0.0000000   0.0769800   0.0305014), wk =   0.0053333
        k(    6) = (   0.0000000   0.0769800   0.0610028), wk =   0.0053333
        k(    7) = (   0.0000000   0.1539601  -0.0000000), wk =   0.0053333
        k(    8) = (   0.0000000   0.1539601   0.0305014), wk =   0.0053333
        k(    9) = (   0.0000000   0.1539601   0.0610028), wk =   0.0053333
        k(   10) = (   0.0000000   0.2309401  -0.0000000), wk =   0.0053333
        k(   11) = (   0.0000000   0.2309401   0.0305014), wk =   0.0053333
        k(   12) = (   0.0000000   0.2309401   0.0610028), wk =   0.0053333
        k(   13) = (   0.0000000   0.3079201  -0.0000000), wk =   0.0053333
        k(   14) = (   0.0000000   0.3079201   0.0305014), wk =   0.0053333
        k(   15) = (   0.0000000   0.3079201   0.0610028), wk =   0.0053333
        k(   16) = (   0.0000000   0.3849002  -0.0000000), wk =   0.0053333
        k(   17) = (   0.0000000   0.3849002   0.0305014), wk =   0.0053333
        k(   18) = (   0.0000000   0.3849002   0.0610028), wk =   0.0053333
        k(   19) = (   0.0000000   0.4618802  -0.0000000), wk =   0.0053333
        k(   20) = (   0.0000000   0.4618802   0.0305014), wk =   0.0053333
        k(   21) = (   0.0000000   0.4618802   0.0610028), wk =   0.0053333
        k(   22) = (   0.0000000   0.5388603  -0.0000000), wk =   0.0053333
        k(   23) = (   0.0000000   0.5388603   0.0305014), wk =   0.0053333
        k(   24) = (   0.0000000   0.5388603   0.0610028), wk =   0.0053333
        k(   25) = (   0.0666667   0.1154701  -0.0000000), wk =   0.0053333
        k(   26) = (   0.0666667   0.1154701   0.0305014), wk =   0.0106667
        k(   27) = (   0.0666667   0.1154701   0.0610028), wk =   0.0106667
        k(   28) = (   0.0666667   0.1924501  -0.0000000), wk =   0.0106667
        k(   29) = (   0.0666667   0.1924501   0.0305014), wk =   0.0106667
        k(   30) = (   0.0666667   0.1924501   0.0610028), wk =   0.0106667
        k(   31) = (   0.0666667   0.2694301  -0.0000000), wk =   0.0106667
        k(   32) = (   0.0666667   0.2694301   0.0305014), wk =   0.0106667
        k(   33) = (   0.0666667   0.2694301   0.0610028), wk =   0.0106667
        k(   34) = (   0.0666667   0.3464102  -0.0000000), wk =   0.0106667
        k(   35) = (   0.0666667   0.3464102   0.0305014), wk =   0.0106667
        k(   36) = (   0.0666667   0.3464102   0.0610028), wk =   0.0106667
        k(   37) = (   0.0666667   0.4233902  -0.0000000), wk =   0.0106667
        k(   38) = (   0.0666667   0.4233902   0.0305014), wk =   0.0106667
        k(   39) = (   0.0666667   0.4233902   0.0610028), wk =   0.0106667
        k(   40) = (   0.0666667   0.5003702  -0.0000000), wk =   0.0106667
        k(   41) = (   0.0666667   0.5003702   0.0305014), wk =   0.0106667
        k(   42) = (   0.0666667   0.5003702   0.0610028), wk =   0.0106667
        k(   43) = (   0.0666667   0.5773503  -0.0000000), wk =   0.0053333
        k(   44) = (   0.0666667   0.5773503   0.0305014), wk =   0.0106667
        k(   45) = (   0.0666667   0.5773503   0.0610028), wk =   0.0106667
        k(   46) = (   0.1333333   0.2309401  -0.0000000), wk =   0.0053333
        k(   47) = (   0.1333333   0.2309401   0.0305014), wk =   0.0106667
        k(   48) = (   0.1333333   0.2309401   0.0610028), wk =   0.0106667
        k(   49) = (   0.1333333   0.3079201  -0.0000000), wk =   0.0106667
        k(   50) = (   0.1333333   0.3079201   0.0305014), wk =   0.0106667
        k(   51) = (   0.1333333   0.3079201   0.0610028), wk =   0.0106667
        k(   52) = (   0.1333333   0.3849002  -0.0000000), wk =   0.0106667
        k(   53) = (   0.1333333   0.3849002   0.0305014), wk =   0.0106667
        k(   54) = (   0.1333333   0.3849002   0.0610028), wk =   0.0106667
        k(   55) = (   0.1333333   0.4618802  -0.0000000), wk =   0.0106667
        k(   56) = (   0.1333333   0.4618802   0.0305014), wk =   0.0106667
        k(   57) = (   0.1333333   0.4618802   0.0610028), wk =   0.0106667
        k(   58) = (   0.1333333   0.5388603  -0.0000000), wk =   0.0106667
        k(   59) = (   0.1333333   0.5388603   0.0305014), wk =   0.0106667
        k(   60) = (   0.1333333   0.5388603   0.0610028), wk =   0.0106667
[...]
        k(  105) = (  -0.0666667  -0.5003702   0.0610028), wk =   0.0106667
        k(  106) = (  -0.1333333  -0.3079201   0.0305014), wk =   0.0106667
        k(  107) = (  -0.1333333  -0.3079201   0.0610028), wk =   0.0106667
        k(  108) = (  -0.1333333  -0.3849002   0.0305014), wk =   0.0106667
        k(  109) = (  -0.1333333  -0.3849002   0.0610028), wk =   0.0106667
        k(  110) = (  -0.1333333  -0.4618802   0.0305014), wk =   0.0106667
        k(  111) = (  -0.1333333  -0.4618802   0.0610028), wk =   0.0106667
        k(  112) = (  -0.1333333  -0.5388603   0.0305014), wk =   0.0106667
        k(  113) = (  -0.1333333  -0.5388603   0.0610028), wk =   0.0106667
        k(  114) = (  -0.2000000  -0.4233902   0.0305014), wk =   0.0106667
        k(  115) = (  -0.2000000  -0.4233902   0.0610028), wk =   0.0106667
        k(  116) = (  -0.2000000  -0.5003702   0.0305014), wk =   0.0106667
        k(  117) = (  -0.2000000  -0.5003702   0.0610028), wk =   0.0106667
        k(  118) = (  -0.2666667  -0.5388603   0.0305014), wk =   0.0106667
        k(  119) = (  -0.2666667  -0.5388603   0.0610028), wk =   0.0106667

                       cryst. coord.
        k(    1) = (   0.0000000   0.0000000   0.0000000), wk =   0.0008889
        k(    2) = (   0.0000000   0.0000000   0.2000000), wk =   0.0017778
        k(    3) = (   0.0000000   0.0000000   0.4000000), wk =   0.0017778
        k(    4) = (   0.0000000   0.0666667   0.0000000), wk =   0.0053333
        k(    5) = (   0.0000000   0.0666667   0.2000000), wk =   0.0053333
        k(    6) = (   0.0000000   0.0666667   0.4000000), wk =   0.0053333
        k(    7) = (   0.0000000   0.1333333   0.0000000), wk =   0.0053333
        k(    8) = (   0.0000000   0.1333333   0.2000000), wk =   0.0053333
        k(    9) = (   0.0000000   0.1333333   0.4000000), wk =   0.0053333
        k(   10) = (   0.0000000   0.2000000   0.0000000), wk =   0.0053333
        k(   11) = (   0.0000000   0.2000000   0.2000000), wk =   0.0053333
        k(   12) = (   0.0000000   0.2000000   0.4000000), wk =   0.0053333
        k(   13) = (   0.0000000   0.2666667   0.0000000), wk =   0.0053333
        k(   14) = (   0.0000000   0.2666667   0.2000000), wk =   0.0053333
        k(   15) = (   0.0000000   0.2666667   0.4000000), wk =   0.0053333
        k(   16) = (   0.0000000   0.3333333   0.0000000), wk =   0.0053333
        k(   17) = (   0.0000000   0.3333333   0.2000000), wk =   0.0053333
        k(   18) = (   0.0000000   0.3333333   0.4000000), wk =   0.0053333
        k(   19) = (   0.0000000   0.4000000   0.0000000), wk =   0.0053333
        k(   20) = (   0.0000000   0.4000000   0.2000000), wk =   0.0053333
        k(   21) = (   0.0000000   0.4000000   0.4000000), wk =   0.0053333
        k(   22) = (   0.0000000   0.4666667   0.0000000), wk =   0.0053333
        k(   23) = (   0.0000000   0.4666667   0.2000000), wk =   0.0053333
        k(   24) = (   0.0000000   0.4666667   0.4000000), wk =   0.0053333
        k(   25) = (   0.0666667   0.0666667   0.0000000), wk =   0.0053333
        k(   26) = (   0.0666667   0.0666667   0.2000000), wk =   0.0106667
        k(   27) = (   0.0666667   0.0666667   0.4000000), wk =   0.0106667
        k(   28) = (   0.0666667   0.1333333   0.0000000), wk =   0.0106667
        k(   29) = (   0.0666667   0.1333333   0.2000000), wk =   0.0106667
        k(   30) = (   0.0666667   0.1333333   0.4000000), wk =   0.0106667
        k(   31) = (   0.0666667   0.2000000  -0.0000000), wk =   0.0106667
        k(   32) = (   0.0666667   0.2000000   0.2000000), wk =   0.0106667
        k(   33) = (   0.0666667   0.2000000   0.4000000), wk =   0.0106667
        k(   34) = (   0.0666667   0.2666667   0.0000000), wk =   0.0106667
        k(   35) = (   0.0666667   0.2666667   0.2000000), wk =   0.0106667
        k(   36) = (   0.0666667   0.2666667   0.4000000), wk =   0.0106667
        k(   37) = (   0.0666667   0.3333333   0.0000000), wk =   0.0106667
        k(   38) = (   0.0666667   0.3333333   0.2000000), wk =   0.0106667
        k(   39) = (   0.0666667   0.3333333   0.4000000), wk =   0.0106667
        k(   40) = (   0.0666667   0.4000000   0.0000000), wk =   0.0106667
        k(   41) = (   0.0666667   0.4000000   0.2000000), wk =   0.0106667
        k(   42) = (   0.0666667   0.4000000   0.4000000), wk =   0.0106667
        k(   43) = (   0.0666667   0.4666667  -0.0000000), wk =   0.0053333
        k(   44) = (   0.0666667   0.4666667   0.2000000), wk =   0.0106667
        k(   45) = (   0.0666667   0.4666667   0.4000000), wk =   0.0106667
        k(   46) = (   0.1333333   0.1333333   0.0000000), wk =   0.0053333
        k(   47) = (   0.1333333   0.1333333   0.2000000), wk =   0.0106667
        k(   48) = (   0.1333333   0.1333333   0.4000000), wk =   0.0106667
        k(   49) = (   0.1333333   0.2000000   0.0000000), wk =   0.0106667
        k(   50) = (   0.1333333   0.2000000   0.2000000), wk =   0.0106667
        k(   51) = (   0.1333333   0.2000000   0.4000000), wk =   0.0106667
        k(   52) = (   0.1333333   0.2666667   0.0000000), wk =   0.0106667
        k(   53) = (   0.1333333   0.2666667   0.2000000), wk =   0.0106667
        k(   54) = (   0.1333333   0.2666667   0.4000000), wk =   0.0106667
        k(   55) = (   0.1333333   0.3333333   0.0000000), wk =   0.0106667
        k(   56) = (   0.1333333   0.3333333   0.2000000), wk =   0.0106667
        k(   57) = (   0.1333333   0.3333333   0.4000000), wk =   0.0106667
        k(   58) = (   0.1333333   0.4000000  -0.0000000), wk =   0.0106667
        k(   59) = (   0.1333333   0.4000000   0.2000000), wk =   0.0106667
        k(   60) = (   0.1333333   0.4000000   0.4000000), wk =   0.0106667
[...]
        k(  105) = (  -0.0666667  -0.4000000   0.4000000), wk =   0.0106667
        k(  106) = (  -0.1333333  -0.2000000   0.2000000), wk =   0.0106667
        k(  107) = (  -0.1333333  -0.2000000   0.4000000), wk =   0.0106667
        k(  108) = (  -0.1333333  -0.2666667   0.2000000), wk =   0.0106667
        k(  109) = (  -0.1333333  -0.2666667   0.4000000), wk =   0.0106667
        k(  110) = (  -0.1333333  -0.3333333   0.2000000), wk =   0.0106667
        k(  111) = (  -0.1333333  -0.3333333   0.4000000), wk =   0.0106667
        k(  112) = (  -0.1333333  -0.4000000   0.2000000), wk =   0.0106667
        k(  113) = (  -0.1333333  -0.4000000   0.4000000), wk =   0.0106667
        k(  114) = (  -0.2000000  -0.2666667   0.2000000), wk =   0.0106667
        k(  115) = (  -0.2000000  -0.2666667   0.4000000), wk =   0.0106667
        k(  116) = (  -0.2000000  -0.3333333   0.2000000), wk =   0.0106667
        k(  117) = (  -0.2000000  -0.3333333   0.4000000), wk =   0.0106667
        k(  118) = (  -0.2666667  -0.3333333   0.2000000), wk =   0.0106667
        k(  119) = (  -0.2666667  -0.3333333   0.4000000), wk =   0.0106667

     Initial potential from superposition of free atoms

     starting charge  173.97504, renormalised to  174.00000
     Starting wfc are  216 randomized atomic wfcs

     Self-consistent Calculation

     iteration #  1     ecut=   150.00 Ry     beta=0.70
     Davidson diagonalization with overlap
     ethr =  1.00E-02,  avg # of iterations =  1.7

     Threshold (ethr) on eigenvalues was too large:
     Diagonalizing with lowered threshold

     Davidson diagonalization with overlap
     ethr =  1.56E-04,  avg # of iterations =  3.0

     total energy              =   -1673.37529551 Ry
     Harris-Foulkes estimate   =   -1673.50532043 Ry
     estimated scf accuracy    <       0.21852590 Ry

[...]

     total energy              =   -1673.44707605 Ry
     Harris-Foulkes estimate   =   -1673.44707605 Ry
     estimated scf accuracy    <          2.0E-09 Ry

     iteration # 15     ecut=   150.00 Ry     beta=0.70
     Davidson diagonalization with overlap
     ethr =  1.17E-12,  avg # of iterations =  3.6

     End of self-consistent calculation

          k = 0.0000 0.0000 0.0000 ( 94937 PWs)   bands (ev):

   -30.0470 -30.0470 -30.0470 -30.0470 -30.0470 -30.0470 -30.0362 -30.0362
   -30.0361 -30.0361 -30.0361 -30.0361 -30.0211 -30.0211 -30.0211 -30.0211
   -30.0210 -30.0210 -30.0117 -30.0117 -30.0117 -30.0117 -30.0117 -30.0117
   -28.5903 -28.5903 -28.5903 -28.5903 -28.5903 -28.5903 -28.5791 -28.5791
   -28.5791 -28.5791 -28.5791 -28.5791 -28.5681 -28.5681 -28.5681 -28.5681
   -28.5681 -28.5681 -28.5582 -28.5582 -28.5582 -28.5582 -28.5582 -28.5582
   -28.5561 -28.5561 -28.5561 -28.5561 -28.5560 -28.5560 -28.5468 -28.5468
   -28.5468 -28.5468 -28.5467 -28.5467  -7.7837  -7.7837  -7.7837  -7.7837
    -7.7837  -7.7837  -7.7679  -7.7679  -7.7679  -7.7679  -7.7678  -7.7678
    -7.7543  -7.7543  -7.7543  -7.7543  -7.7542  -7.7542  -7.7275  -7.7275
    -7.7275  -7.7275  -7.7275  -7.7275  -6.9616  -6.9616  -6.9616  -6.9616
    -6.9615  -6.9615  -6.9424  -6.9424  -6.9424  -6.9424  -6.9423  -6.9423
    -6.9288  -6.9288  -6.9288  -6.9288  -6.9288  -6.9288  -6.8970  -6.8970
    -6.8970  -6.8970  -6.8969  -6.8969  -6.8327  -6.8327  -6.8326  -6.8326
    -6.8326  -6.8326  -6.8069  -6.8069  -6.8069  -6.8069  -6.8069  -6.8069
    -4.5340  -4.5340  -4.4892  -4.4892  -4.4892  -4.4892  -4.2891  -4.2891
    -4.2890  -4.2890  -4.2343  -4.2343   1.2955   1.2955   1.5349   1.5349
     1.5349   1.5349   2.9946   2.9946   2.9947   2.9947   3.6138   3.6138
     5.4149   5.4149   5.8467   5.8467   5.8467   5.8467   5.9719   5.9719
     5.9720   5.9720   6.0337   6.0337   6.1742   6.1742   6.5264   6.5264
     6.5275   6.5275   6.5846   6.5846   6.6649   6.6649   6.6886   6.6886
     6.6887   6.6887   6.7285   6.7285   6.7297   6.7297

     occupation numbers
     1.0000   1.0000   1.0000   1.0000   1.0000   1.0000   1.0000   1.0000
     1.0000   1.0000   1.0000   1.0000   1.0000   1.0000   1.0000   1.0000
     1.0000   1.0000   1.0000   1.0000   1.0000   1.0000   1.0000   1.0000
     1.0000   1.0000   1.0000   1.0000   1.0000   1.0000   1.0000   1.0000
     1.0000   1.0000   1.0000   1.0000   1.0000   1.0000   1.0000   1.0000
     1.0000   1.0000   1.0000   1.0000   1.0000   1.0000   1.0000   1.0000
     1.0000   1.0000   1.0000   1.0000   1.0000   1.0000   1.0000   1.0000
     1.0000   1.0000   1.0000   1.0000   1.0000   1.0000   1.0000   1.0000
     1.0000   1.0000   1.0000   1.0000   1.0000   1.0000   1.0000   1.0000
     1.0000   1.0000   1.0000   1.0000   1.0000   1.0000   1.0000   1.0000
     1.0000   1.0000   1.0000   1.0000   1.0000   1.0000   1.0000   1.0000
     1.0000   1.0000   1.0000   1.0000   1.0000   1.0000   1.0000   1.0000
     1.0000   1.0000   1.0000   1.0000   1.0000   1.0000   1.0000   1.0000
     1.0000   1.0000   1.0000   1.0000   1.0000   1.0000   1.0000   1.0000
     1.0000   1.0000   1.0000   1.0000   1.0000   1.0000   1.0000   1.0000
     1.0000   1.0000   1.0000   1.0000   1.0000   1.0000   1.0000   1.0000
     1.0000   1.0000   1.0000   1.0000   1.0000   1.0000   1.0000   1.0000
     1.0000   1.0000   1.0000   1.0000   1.0000   1.0000   1.0000   1.0000
     1.0000   1.0000   1.0000   1.0000   1.0000   1.0000   1.0000   1.0000
     1.0000   1.0000   1.0000   1.0000   1.0000   1.0000   1.0000   1.0000
     1.0000   1.0000   1.0000   1.0000   1.0000   1.0000   1.0000   1.0000
     1.0000   1.0000   1.0000   1.0000   1.0000   1.0000

[...]

          k = 0.0000-0.5389 0.0610 ( 95161 PWs)   bands (ev):

[...]

          k =-0.0667-0.1925 0.0305 ( 95070 PWs)   bands (ev):

[...]

          k =-0.2667-0.5389 0.0610 ( 95268 PWs)   bands (ev):

   -30.0464 -30.0464 -30.0464 -30.0463 -30.0463 -30.0463 -30.0356 -30.0356
   -30.0355 -30.0355 -30.0355 -30.0354 -30.0209 -30.0209 -30.0209 -30.0209
   -30.0209 -30.0209 -30.0116 -30.0116 -30.0116 -30.0115 -30.0115 -30.0115
   -28.5893 -28.5893 -28.5893 -28.5892 -28.5892 -28.5892 -28.5782 -28.5781
   -28.5781 -28.5780 -28.5780 -28.5780 -28.5682 -28.5682 -28.5682 -28.5681
   -28.5681 -28.5681 -28.5584 -28.5584 -28.5583 -28.5582 -28.5582 -28.5582
   -28.5556 -28.5556 -28.5556 -28.5555 -28.5555 -28.5555 -28.5463 -28.5463
   -28.5463 -28.5463 -28.5463 -28.5462  -7.8036  -7.8036  -7.8035  -7.7985
    -7.7985  -7.7984  -7.7898  -7.7898  -7.7897  -7.7788  -7.7788  -7.7788
    -7.7656  -7.7654  -7.7654  -7.7472  -7.7472  -7.7472  -7.7366  -7.7366
    -7.7365  -7.7321  -7.7321  -7.7321  -7.0245  -7.0244  -7.0242  -6.9919
    -6.9917  -6.9916  -6.9789  -6.9789  -6.9789  -6.9641  -6.9641  -6.9640
    -6.9514  -6.9513  -6.9513  -6.8977  -6.8977  -6.8976  -6.8890  -6.8890
    -6.8890  -6.8797  -6.8797  -6.8796  -6.8706  -6.8706  -6.8705  -6.8525
    -6.8525  -6.8525  -6.7883  -6.7882  -6.7882  -6.7831  -6.7831  -6.7831
    -3.3212  -3.3188  -3.3106  -3.3077  -3.2991  -3.2957  -3.2692  -3.2658
    -3.2575  -3.2536  -3.2466  -3.2422   1.1441   1.1561   1.1573   1.2480
     1.2585   1.2616   1.8032   1.8107   1.8196   1.9719   1.9855   1.9893
     3.5953   3.5984   3.6438   3.7651   3.7936   3.7960   3.9075   3.9126
     3.9175   4.0854   4.1509   4.1612   4.5340   4.5513   4.6226   4.6473
     4.7677   4.8208   5.1035   5.1714   5.2027   5.2083   5.3061   5.3080
     5.3101   5.4068   5.4107   5.5276   5.5533   5.6349

     occupation numbers
     1.0000   1.0000   1.0000   1.0000   1.0000   1.0000   1.0000   1.0000
     1.0000   1.0000   1.0000   1.0000   1.0000   1.0000   1.0000   1.0000
     1.0000   1.0000   1.0000   1.0000   1.0000   1.0000   1.0000   1.0000
     1.0000   1.0000   1.0000   1.0000   1.0000   1.0000   1.0000   1.0000
     1.0000   1.0000   1.0000   1.0000   1.0000   1.0000   1.0000   1.0000
     1.0000   1.0000   1.0000   1.0000   1.0000   1.0000   1.0000   1.0000
     1.0000   1.0000   1.0000   1.0000   1.0000   1.0000   1.0000   1.0000
     1.0000   1.0000   1.0000   1.0000   1.0000   1.0000   1.0000   1.0000
     1.0000   1.0000   1.0000   1.0000   1.0000   1.0000   1.0000   1.0000
     1.0000   1.0000   1.0000   1.0000   1.0000   1.0000   1.0000   1.0000
     1.0000   1.0000   1.0000   1.0000   1.0000   1.0000   1.0000   1.0000
     1.0000   1.0000   1.0000   1.0000   1.0000   1.0000   1.0000   1.0000
     1.0000   1.0000   1.0000   1.0000   1.0000   1.0000   1.0000   1.0000
     1.0000   1.0000   1.0000   1.0000   1.0000   1.0000   1.0000   1.0000
     1.0000   1.0000   1.0000   1.0000   1.0000   1.0000   1.0000   1.0000
     1.0000   1.0000   1.0000   1.0000   1.0000   1.0000   1.0000   1.0000
     1.0000   1.0000   1.0000   1.0000   1.0000   1.0000   1.0000   1.0000
     1.0000   1.0000   1.0000   1.0000   1.0000   1.0000   1.0000   1.0000
     1.0000   1.0000   1.0000   1.0000   1.0000   1.0000   1.0000   1.0000
     1.0000   1.0000   1.0000   1.0000   1.0000   1.0000   1.0000   1.0000
     1.0000   1.0000   1.0000   1.0000   1.0000   1.0000   1.0000   1.0000
     1.0000   1.0000   1.0000   1.0000   1.0000   1.0000

     highest occupied level (ev):     7.1126

!    total energy              =   -1673.44707605 Ry
     Harris-Foulkes estimate   =   -1673.44707605 Ry
     estimated scf accuracy    <          4.5E-10 Ry

     The total energy is the sum of the following terms:

     one-electron contribution =    -888.99411395 Ry
     hartree contribution      =     494.34344167 Ry
     xc contribution           =    -191.73044738 Ry
     ewald contribution        =   -1087.06595638 Ry

     convergence has been achieved in  15 iterations

     Writing output data file InTegamma.save

     General routines

     Parallel routines

   This run was terminated on:  23:14:24   6Apr2022

   JOB DONE.